 vasp.5.4.4.18Apr17-6-g9f103f2a35 (build Dec 07 2017 12:23:07) complex

 executed on     UA-Leibniz-2016b date 2018.11.07  16:49:14

 INCAR:
 POTCAR:    PAW_PBE Li_sv 10Sep2004
 POTCAR:    PAW_PBE Mn_pv 02Aug2007
 POTCAR:    PAW_PBE O 08Apr2002

 POTCAR:    PAW_PBE Li_sv 10Sep2004
   VRHFIN =Li: 1s2s2p

   TITEL  = PAW_PBE Li_sv 10Sep2004
   POMASS =    7.010; ZVAL   =    3.000    mass and valenz
   ENMAX  =  499.034; ENMIN  =  374.276 eV

 POTCAR:    PAW_PBE Mn_pv 02Aug2007
   VRHFIN =Mn: 3p4s3d

   TITEL  = PAW_PBE Mn_pv 02Aug2007
   POMASS =   54.938; ZVAL   =   13.000    mass and valenz
   ENMAX  =  269.864; ENMIN  =  202.398 eV

 POTCAR:    PAW_PBE O 08Apr2002
   VRHFIN =O: s2p4

   TITEL  = PAW_PBE O 08Apr2002
   POMASS =   16.000; ZVAL   =    6.000    mass and valenz
   ENMAX  =  400.000; ENMIN  =  300.000 eV

 Optimization of the real space projectors (new method)

 maximal supplied QI-value         = 22.11
 optimisation between [QCUT,QGAM] = [ 11.28, 22.77] = [ 35.61,145.23] Ry
 Optimized for a Real-space Cutoff    1.10 Angstroem

   l    n(q)    QCUT    max X(q) W(low)/X(q) W(high)/X(q)  e(spline)
   0      7    11.276    10.506    0.54E-04    0.58E-04    0.16E-07
   0      7    11.276     8.367    0.11E-03    0.14E-03    0.35E-07
   1      7    11.276     8.983    0.23E-03    0.43E-03    0.86E-07
 Optimization of the real space projectors (new method)

[...]

   l    n(q)    QCUT    max X(q) W(low)/X(q) W(high)/X(q)  e(spline)
   1     10    11.376     3.658    0.62E-04    0.11E-03    0.11E-06
   1     10    11.376     5.612    0.12E-03    0.20E-03    0.19E-06
   2      9    11.376    55.373    0.10E-03    0.85E-04    0.19E-06
   2      9    11.376    50.863    0.11E-03    0.88E-04    0.19E-06
   0     10    11.376    79.536    0.52E-04    0.21E-04    0.79E-07
   0     10    11.376    38.668    0.45E-04    0.19E-04    0.74E-07
 Optimization of the real space projectors (new method)

 maximal supplied QI-value         = 24.76
 optimisation between [QCUT,QGAM] = [ 11.39, 22.77] = [ 36.31,145.25] Ry
 Optimized for a Real-space Cutoff    1.10 Angstroem

   l    n(q)    QCUT    max X(q) W(low)/X(q) W(high)/X(q)  e(spline)
   0      7    11.387    20.381    0.22E-03    0.48E-03    0.18E-06
   0      7    11.387    15.268    0.22E-03    0.52E-03    0.19E-06
   1      7    11.387     5.964    0.22E-03    0.73E-03    0.24E-06
   1      7    11.387     5.382    0.19E-03    0.60E-03    0.21E-06
  PAW_PBE Li_sv 10Sep2004               :
  PAW_PBE Mn_pv 02Aug2007               :
  PAW_PBE O 08Apr2002                   :

 POSCAR: Li8 Mn16 O48
  positions in direct lattice
 exchange correlation table for  LEXCH =        8
   RHO(1)=    0.500       N(1)  =     2000
   RHO(2)=  100.500       N(2)  =     4000

 ion  position               nearest neighbor table
   1  0.005  0.005  0.000-  41 2.06  33 2.06  58 2.08  31 2.09  68 2.10  54 2.10
   2  0.989  0.989  0.507-  32 1.97  53 2.04  67 2.04  34 2.08  42 2.08  57 2.28
   3  0.000  0.500  0.000-  29 2.04  60 2.04  35 2.08  66 2.08  56 2.09  43 2.09
   4  0.998  0.501  0.500-  55 2.04  44 2.04  36 2.05  65 2.06  30 2.09  59 2.09
   5  0.500  1.000  1.000-  62 2.04  27 2.04  50 2.08  45 2.08  37 2.09  72 2.09
   6  0.502  0.999  0.500-  38 2.04  71 2.04  49 2.05  46 2.06  61 2.09  28 2.09
   7  0.495  0.495  1.000-  70 2.06  52 2.06  25 2.08  64 2.09  47 2.10  39 2.10
   8  0.511  0.511  0.493-  63 1.97  40 2.04  48 2.04  51 2.08  69 2.08  26 2.28
   9  0.170  0.345  0.259-  35 1.84  51 1.89  41 1.89  65 1.89  25 1.90  57 2.12  19 2.85  21 2.89
                            17 3.02
  10  0.155  0.330  0.741-  66 1.84  42 1.89  52 1.89  36 1.89  58 1.90  26 2.12  22 2.85  20 2.89
                            18 3.02
  11  0.166  0.837  0.251-  59 1.90  67 1.90  43 1.90  27 1.90  49 1.91  33 1.91  19 2.87  23 2.88
                            17 2.89
  12  0.165  0.826  0.752-  44 1.88  60 1.89  34 1.90  28 1.90  68 1.90  50 1.92  18 2.85  20 2.87
                            24 2.88
  13  0.674  0.335  0.248-  55 1.88  29 1.89  69 1.90  61 1.90  39 1.90  45 1.92  17 2.85  21 2.87
                            23 2.88
  14  0.663  0.334  0.749-  30 1.90  40 1.90  56 1.90  62 1.90  46 1.91  70 1.91  22 2.87  24 2.88
                            18 2.89
  15  0.667  0.834  0.243-  63 1.90  31 1.90  37 1.90  53 1.90  71 1.90  47 1.91  19 2.88  21 2.88
                            23 2.88
  16  0.666  0.833  0.757-  32 1.90  64 1.90  72 1.90  48 1.90  38 1.90  54 1.91  22 2.88  20 2.88
                            24 2.88
  17  0.345  0.170  0.259-  45 1.84  69 1.89  33 1.89  49 1.89  25 1.90  57 2.12  13 2.85  11 2.89
                             9 3.02
  18  0.330  0.155  0.741-  50 1.84  34 1.89  70 1.89  46 1.89  58 1.90  26 2.12  12 2.85  14 2.89
                            10 3.02
  19  0.335  0.674  0.248-  71 1.88  27 1.89  51 1.90  59 1.90  47 1.90  35 1.92   9 2.85  11 2.87
                            15 2.88
  20  0.334  0.663  0.749-  28 1.90  48 1.90  72 1.90  60 1.90  36 1.91  52 1.91  12 2.87  16 2.88
                            10 2.89
  21  0.837  0.166  0.251-  61 1.90  53 1.90  37 1.90  29 1.90  65 1.91  41 1.91  13 2.87  15 2.88
                             9 2.89
  22  0.826  0.165  0.752-  38 1.88  62 1.89  42 1.90  30 1.90  54 1.90  66 1.92  10 2.85  14 2.87
                            16 2.88
  23  0.834  0.667  0.243-  63 1.90  31 1.90  43 1.90  67 1.90  55 1.90  39 1.91  13 2.88  11 2.88
                            15 2.88
  24  0.833  0.666  0.757-  32 1.90  64 1.90  56 1.90  40 1.90  44 1.90  68 1.91  12 2.88  14 2.88
                            16 2.88
  25  0.325  0.325  0.146-  17 1.90   9 1.90   7 2.08
  26  0.292  0.292  0.570-  57 1.43  10 2.12  18 2.12   8 2.28
  27  0.321  0.827  0.126-  19 1.89  11 1.90   5 2.04
  28  0.322  0.818  0.629-  20 1.90  12 1.90   6 2.09
  29  0.827  0.321  0.126-  13 1.89  21 1.90   3 2.04
  30  0.818  0.322  0.629-  14 1.90  22 1.90   4 2.09
  31  0.819  0.819  0.118-  23 1.90  15 1.90   1 2.09
  32  0.822  0.822  0.635-  16 1.90  24 1.90   2 1.97
  33  0.178  0.012  0.142-  17 1.89  11 1.91   1 2.06
  34  0.173  0.988  0.624-  18 1.89  12 1.90   2 2.08
  35  0.178  0.500  0.132-   9 1.84  19 1.92   3 2.08
  36  0.178  0.501  0.622-  10 1.89  20 1.91   4 2.05
  37  0.685  0.003  0.122-  15 1.90  21 1.90   5 2.09
  38  0.673  0.997  0.633-  22 1.88  16 1.90   6 2.04
  39  0.681  0.498  0.121-  13 1.90  23 1.91   7 2.10
  40  0.676  0.503  0.631-  14 1.90  24 1.90   8 2.04
  41  0.012  0.179  0.142-   9 1.89  21 1.91   1 2.06
  42  0.988  0.173  0.624-  10 1.89  22 1.90   2 2.08
  43  0.003  0.685  0.122-  23 1.90  11 1.90   3 2.09
  44  0.996  0.673  0.633-  12 1.88  24 1.90   4 2.04
  45  0.500  0.178  0.131-  17 1.84  13 1.92   5 2.08
  46  0.501  0.178  0.622-  18 1.89  14 1.91   6 2.06
  47  0.498  0.681  0.121-  19 1.90  15 1.91   7 2.10
  48  0.503  0.676  0.631-  20 1.90  16 1.90   8 2.04
  49  0.322  0.999  0.378-  17 1.89  11 1.91   6 2.05
  50  0.322  1.000  0.868-  18 1.84  12 1.92   5 2.08
  51  0.327  0.512  0.376-   9 1.89  19 1.90   8 2.08
  52  0.322  0.488  0.858-  10 1.89  20 1.91   7 2.06
  53  0.824  0.997  0.369-  21 1.90  15 1.90   2 2.04
  54  0.819  0.002  0.879-  22 1.90  16 1.91   1 2.10
  55  0.827  0.503  0.367-  13 1.88  23 1.90   4 2.04
  56  0.815  0.497  0.878-  24 1.90  14 1.90   3 2.09
  57  0.208  0.208  0.430-  26 1.43  17 2.12   9 2.12   2 2.28
  58  0.175  0.175  0.854-  10 1.90  18 1.90   1 2.08
  59  0.178  0.682  0.371-  11 1.90  19 1.90   4 2.09
  60  0.179  0.673  0.874-  12 1.89  20 1.90   3 2.04
  61  0.682  0.178  0.371-  21 1.90  13 1.90   6 2.09
  62  0.673  0.179  0.874-  22 1.89  14 1.90   5 2.04
  63  0.678  0.678  0.365-  23 1.90  15 1.90   8 1.97
  64  0.681  0.681  0.882-  16 1.90  24 1.90   7 2.09
  65  0.999  0.322  0.378-   9 1.89  21 1.91   4 2.06
  66  1.000  0.322  0.869-  10 1.84  22 1.92   3 2.08
  67  0.997  0.824  0.369-  11 1.90  23 1.90   2 2.04
  68  0.002  0.819  0.879-  12 1.90  24 1.91   1 2.10
  69  0.512  0.327  0.376-  17 1.89  13 1.90   8 2.08
  70  0.488  0.321  0.858-  18 1.89  14 1.91   7 2.06
  71  0.504  0.827  0.367-  19 1.88  15 1.90   6 2.04
  72  0.497  0.815  0.878-  16 1.90  20 1.90   5 2.09

  LATTYP: Found a hexagonal cell.
 ALAT       =     9.9963163228
 C/A-ratio  =     0.8228598387

  Lattice vectors:

 A1 = (   9.9963160000,   0.0000090000,   0.0017840000)
 A2 = (  -4.9981650000,   8.6570590000,  -0.0022840000)
 A3 = (  -0.0014680000,   0.0013220000,   8.2255670000)

Analysis of symmetry for initial positions (statically):
 Subroutine PRICEL returns:
 Original cell was already a primitive cell.

 Routine SETGRP: Setting up the symmetry group for a
 hexagonal supercell.

 Subroutine GETGRP returns: Found  2 space group operations
 (whereof  1 operations were pure point group operations)
 out of a pool of 24 trial point group operations.

The static configuration has the point symmetry C_1 .
 The point group associated with its full space group is S_2 .

Analysis of symmetry for dynamics (positions and initial velocities):
 Subroutine PRICEL returns:
 Original cell was already a primitive cell.

[...]

The dynamic configuration has the point symmetry C_1 .
 The point group associated with its full space group is S_2 .

Analysis of structural, dynamic, and magnetic symmetry:
 Subroutine PRICEL returns:
 Original cell was already a primitive cell.

 Routine SETGRP: Setting up the symmetry group for a
 hexagonal supercell.

 Subroutine GETGRP returns: Found  2 space group operations
 (whereof  1 operations were pure point group operations)
 out of a pool of 24 trial point group operations.

The magnetic configuration has the point symmetry C_1 .
 The point group associated with its full space group is S_2 .

 Subroutine INISYM returns: Found  2 space group operations
 (whereof  1 operations are pure point group operations),
 and found     1 'primitive' translations

 KPOINTS: pymatgen 4.7.6+ generated KPOINTS with g

Automatic generation of k-mesh.
Space group operators:
 irot       det(A)        alpha          n_x          n_y          n_z        tau_x        tau_y        tau_z
    1     1.000000     0.000001     1.000000     0.000000     0.000000     0.000000     0.000000     0.000000
    2    -1.000000     0.000001     1.000000     0.000000     0.000000     0.500000     0.500000     0.000000

 Subroutine IBZKPT returns following result:

 Found     19 irreducible k-points:

 Following reciprocal coordinates:
            Coordinates               Weight
  0.000000  0.000000  0.000000      1.000000
  0.333333 -0.000000 -0.000000      2.000000
 -0.000000  0.333333  0.000000      2.000000
  0.333333  0.333333  0.000000      2.000000
 -0.333333  0.333333  0.000000      2.000000
 -0.000000 -0.000000  0.250000      2.000000
  0.333333 -0.000000  0.250000      2.000000
 -0.333333  0.000000  0.250000      2.000000
 -0.000000  0.333333  0.250000      2.000000
  0.333333  0.333333  0.250000      2.000000
 -0.333333  0.333333  0.250000      2.000000
 -0.000000 -0.333333  0.250000      2.000000
  0.333333 -0.333333  0.250000      2.000000
 -0.333333 -0.333333  0.250000      2.000000
[...]
   -.160E+02 0.193E+02 -.164E+02   0.160E+02 -.192E+02 0.162E+02   -.261E-01 -.149E+00 0.142E+00   0.237E-03 0.464E-03 -.108E-02
   -.247E+02 0.443E+01 0.165E+02   0.246E+02 -.451E+01 -.163E+02   0.116E+00 0.881E-01 -.149E+00   -.153E-02 -.477E-03 0.857E-03
   0.267E+01 -.292E+01 -.236E+02   -.293E+01 0.253E+01 0.233E+02   0.256E+00 0.371E+00 0.239E+00   -.427E-04 -.928E-03 -.102E-02
   0.286E+01 0.704E+00 -.247E+02   -.289E+01 -.566E+00 0.247E+02   0.357E-01 -.129E+00 0.470E-01   -.964E-03 -.720E-03 0.914E-03
   0.884E+00 -.279E+01 0.246E+02   -.102E+01 0.276E+01 -.245E+02   0.119E+00 0.340E-01 -.416E-01   -.596E-03 0.157E-02 -.580E-03
   -.660E+02 -.115E+03 0.231E+03   0.711E+02 0.124E+03 -.247E+03   -.509E+01 -.880E+01 0.155E+02   -.820E-05 -.838E-03 0.205E-02
   -.856E+02 -.148E+03 -.329E+01   0.985E+02 0.171E+03 0.178E+02   -.129E+02 -.224E+02 -.145E+02   -.503E-03 -.439E-03 0.522E-03
   -.683E+02 -.139E+03 0.208E+03   0.737E+02 0.149E+03 -.223E+03   -.543E+01 -.102E+02 0.154E+02   0.223E-03 0.361E-03 0.288E-03
   -.825E+02 -.136E+03 0.199E+03   0.882E+02 0.147E+03 -.215E+03   -.568E+01 -.108E+02 0.154E+02   0.493E-03 0.127E-03 -.573E-03
   -.861E+02 -.128E+03 0.208E+03   0.922E+02 0.138E+03 -.223E+03   -.613E+01 -.981E+01 0.154E+02   -.286E-03 0.519E-03 0.138E-03
   -.763E+02 -.139E+03 0.200E+03   0.828E+02 0.149E+03 -.215E+03   -.648E+01 -.103E+02 0.154E+02   0.386E-03 0.332E-03 -.511E-03
   -.822E+02 -.142E+03 0.187E+03   0.882E+02 0.153E+03 -.202E+03   -.596E+01 -.103E+02 0.154E+02   -.262E-03 -.754E-03 -.355E-03
   -.756E+02 -.131E+03 0.213E+03   0.811E+02 0.140E+03 -.229E+03   -.543E+01 -.937E+01 0.153E+02   -.521E-03 -.483E-03 -.260E-03
   0.180E+03 -.257E+02 0.205E+03   -.193E+03 0.262E+02 -.220E+03   0.125E+02 -.541E+00 0.149E+02   0.836E-03 0.647E-03 0.116E-02
   0.164E+03 0.226E+02 0.188E+03   -.176E+03 -.233E+02 -.203E+03   0.120E+02 0.788E+00 0.154E+02   0.359E-03 0.958E-03 0.148E-03
   0.149E+03 0.596E+01 0.232E+03   -.160E+03 -.454E+01 -.249E+03   0.115E+02 -.143E+01 0.173E+02   -.198E-04 -.905E-03 0.650E-03
   0.150E+03 -.169E+02 0.183E+03   -.161E+03 0.185E+02 -.198E+03   0.116E+02 -.158E+01 0.155E+02   -.161E-04 -.131E-02 0.790E-03
   0.152E+03 -.135E+02 0.194E+03   -.164E+03 0.142E+02 -.209E+03   0.118E+02 -.701E+00 0.154E+02   -.267E-03 -.631E-03 -.147E-03
   0.155E+03 0.147E+02 0.212E+03   -.166E+03 -.158E+02 -.228E+03   0.115E+02 0.111E+01 0.159E+02   0.796E-04 -.539E-03 -.415E-03
   0.166E+03 0.177E+02 0.197E+03   -.178E+03 -.181E+02 -.212E+03   0.120E+02 0.441E+00 0.152E+02   0.268E-03 0.826E-03 0.334E-03
   0.162E+03 -.851E+01 0.205E+03   -.173E+03 0.904E+01 -.220E+03   0.113E+02 -.534E+00 0.153E+02   0.390E-03 0.101E-02 -.750E-03
   -.112E+03 0.143E+03 0.205E+03   0.119E+03 -.153E+03 -.220E+03   -.671E+01 0.105E+02 0.149E+02   0.355E-03 0.755E-03 0.570E-03
   -.624E+02 0.153E+03 0.188E+03   0.677E+02 -.164E+03 -.203E+03   -.532E+01 0.108E+02 0.154E+02   0.516E-03 0.104E-02 0.770E-03
   -.876E+02 0.125E+03 0.194E+03   0.941E+02 -.135E+03 -.209E+03   -.651E+01 0.987E+01 0.153E+02   -.578E-03 -.399E-03 0.256E-03
   -.651E+02 0.141E+03 0.212E+03   0.699E+02 -.152E+03 -.228E+03   -.480E+01 0.105E+02 0.159E+02   -.324E-03 -.384E-03 -.714E-03
   -.695E+02 0.132E+03 0.232E+03   0.765E+02 -.141E+03 -.249E+03   -.703E+01 0.927E+01 0.173E+02   -.108E-02 -.411E-03 0.127E-02
   -.896E+02 0.121E+03 0.183E+03   0.967E+02 -.130E+03 -.199E+03   -.715E+01 0.920E+01 0.155E+02   -.816E-03 -.745E-03 0.723E-04
   -.674E+02 0.153E+03 0.197E+03   0.730E+02 -.163E+03 -.212E+03   -.563E+01 0.106E+02 0.152E+02   0.808E-03 0.648E-03 -.843E-04
   -.887E+02 0.136E+03 0.205E+03   0.949E+02 -.145E+03 -.220E+03   -.613E+01 0.953E+01 0.153E+02   0.427E-03 0.850E-03 -.337E-03
   -.150E+03 0.169E+02 -.183E+03   0.161E+03 -.185E+02 0.198E+03   -.116E+02 0.158E+01 -.155E+02   0.161E-04 0.131E-02 -.790E-03
   -.149E+03 -.596E+01 -.232E+03   0.160E+03 0.454E+01 0.249E+03   -.115E+02 0.143E+01 -.173E+02   0.198E-04 0.905E-03 -.650E-03
   -.164E+03 -.226E+02 -.188E+03   0.176E+03 0.233E+02 0.203E+03   -.120E+02 -.788E+00 -.154E+02   -.359E-03 -.958E-03 -.148E-03
   -.180E+03 0.257E+02 -.205E+03   0.193E+03 -.262E+02 0.220E+03   -.125E+02 0.541E+00 -.149E+02   -.836E-03 -.647E-03 -.116E-02
   -.162E+03 0.851E+01 -.205E+03   0.173E+03 -.904E+01 0.220E+03   -.113E+02 0.534E+00 -.153E+02   -.390E-03 -.101E-02 0.750E-03
   -.166E+03 -.177E+02 -.197E+03   0.178E+03 0.181E+02 0.212E+03   -.120E+02 -.441E+00 -.152E+02   -.268E-03 -.826E-03 -.334E-03
   -.155E+03 -.147E+02 -.212E+03   0.166E+03 0.158E+02 0.228E+03   -.115E+02 -.111E+01 -.159E+02   -.796E-04 0.539E-03 0.415E-03
   -.152E+03 0.135E+02 -.194E+03   0.164E+03 -.142E+02 0.209E+03   -.118E+02 0.701E+00 -.154E+02   0.267E-03 0.631E-03 0.147E-03
   0.856E+02 0.148E+03 0.329E+01   -.985E+02 -.171E+03 -.178E+02   0.129E+02 0.224E+02 0.145E+02   0.503E-03 0.439E-03 -.522E-03
   0.660E+02 0.115E+03 -.231E+03   -.711E+02 -.124E+03 0.247E+03   0.509E+01 0.880E+01 -.155E+02   0.820E-05 0.838E-03 -.205E-02
   0.825E+02 0.136E+03 -.199E+03   -.882E+02 -.147E+03 0.215E+03   0.568E+01 0.108E+02 -.154E+02   -.493E-03 -.127E-03 0.573E-03
   0.683E+02 0.139E+03 -.208E+03   -.737E+02 -.149E+03 0.223E+03   0.543E+01 0.102E+02 -.154E+02   -.223E-03 -.361E-03 -.288E-03
   0.763E+02 0.139E+03 -.200E+03   -.828E+02 -.149E+03 0.215E+03   0.648E+01 0.103E+02 -.154E+02   -.386E-03 -.332E-03 0.511E-03
   0.861E+02 0.128E+03 -.208E+03   -.922E+02 -.138E+03 0.223E+03   0.613E+01 0.981E+01 -.154E+02   0.286E-03 -.519E-03 -.138E-03
   0.756E+02 0.131E+03 -.213E+03   -.811E+02 -.140E+03 0.229E+03   0.543E+01 0.937E+01 -.153E+02   0.521E-03 0.483E-03 0.260E-03
   0.822E+02 0.142E+03 -.187E+03   -.882E+02 -.153E+03 0.202E+03   0.596E+01 0.103E+02 -.154E+02   0.262E-03 0.754E-03 0.355E-03
   0.896E+02 -.121E+03 -.183E+03   -.967E+02 0.130E+03 0.199E+03   0.715E+01 -.920E+01 -.155E+02   0.816E-03 0.745E-03 -.723E-04
   0.695E+02 -.132E+03 -.232E+03   -.765E+02 0.141E+03 0.249E+03   0.703E+01 -.927E+01 -.173E+02   0.108E-02 0.411E-03 -.127E-02
   0.887E+02 -.136E+03 -.205E+03   -.949E+02 0.145E+03 0.220E+03   0.613E+01 -.953E+01 -.153E+02   -.427E-03 -.850E-03 0.337E-03
   0.674E+02 -.153E+03 -.197E+03   -.730E+02 0.163E+03 0.212E+03   0.563E+01 -.106E+02 -.152E+02   -.808E-03 -.648E-03 0.843E-04
   0.624E+02 -.153E+03 -.188E+03   -.677E+02 0.164E+03 0.203E+03   0.532E+01 -.108E+02 -.154E+02   -.516E-03 -.104E-02 -.770E-03
   0.112E+03 -.143E+03 -.205E+03   -.119E+03 0.153E+03 0.220E+03   0.671E+01 -.105E+02 -.149E+02   -.355E-03 -.755E-03 -.570E-03
   0.651E+02 -.141E+03 -.212E+03   -.699E+02 0.152E+03 0.228E+03   0.480E+01 -.105E+02 -.159E+02   0.324E-03 0.384E-03 0.714E-03
   0.876E+02 -.125E+03 -.194E+03   -.941E+02 0.135E+03 0.209E+03   0.651E+01 -.987E+01 -.153E+02   0.578E-03 0.399E-03 -.256E-03
   0.238E-08 -.415E-08 0.108E-09   0.384E-12 -.426E-12 -.171E-12   0.711E-14 0.355E-14 0.711E-13   -.684E-12 0.552E-12 -.214E-11

 POSITION                                       TOTAL-FORCE (eV/Angst)
      0.02473      0.04255      0.00315        -0.000675     -0.001871     -0.001842
      4.94234      8.56289      4.16893        -0.005989     -0.010991      0.003874
     -2.49927      4.32914     -0.00107        -0.003228      0.002621      0.000407
      7.47240      4.34205      4.11312        -0.007284      0.003597     -0.000114
     -0.00129      8.65777      8.22410         0.003228     -0.002621     -0.000407
      0.02336      8.64488      4.11169         0.007284     -0.003597      0.000114
      2.47288      4.28731      8.22217         0.000675      0.001871      0.001842
      2.55342      4.42403      4.05589         0.005989      0.010991     -0.003874
     -0.01973      2.98403      2.12772        -0.011228     -0.003484      0.015329
     -0.09634      2.85472      6.09712         0.003692      0.017528     -0.023439
     -2.52246      7.24762      2.06112         0.001249      0.010439     -0.005153
     -2.48276      7.15017      6.18009        -0.019187     -0.011397     -0.010124
      5.06311      2.90339      2.04366         0.001429      0.016669      0.007030
      4.95663      2.89033      6.16434        -0.013973     -0.008016      0.003199
      2.50337      7.21901      2.00042         0.013862     -0.004030      0.005596
      2.49705      7.20883      6.22370        -0.000010     -0.007082     -0.005719
      2.59395      1.47514      2.12820        -0.003692     -0.017528      0.023439
      2.51733      1.34582      6.09760         0.011228      0.003484     -0.015329
     -0.01779      5.83675      2.04294         0.019187      0.011397      0.010124
      0.02190      5.73930      6.16191        -0.001249     -0.010439      0.005153
      7.53730      1.43953      2.06276         0.013973      0.008016     -0.003199
      7.43082      1.42647      6.18344        -0.001429     -0.016669     -0.007030
      4.99871      5.77809      2.00112         0.000010      0.007082      0.005719
      4.99239      5.76792      6.22440        -0.013862      0.004030     -0.005596
      1.62658      2.81706      1.20062         0.014104      0.029736      0.005495
      1.45856      2.53019      4.69068         0.027439      0.028915     -0.002912
     -0.92471      7.15783      1.03209         0.003401     -0.007204     -0.013006
     -0.87439      7.08388      5.17057         0.015077      0.005128     -0.034138
      6.66109      2.77894      1.03337        -0.007391     -0.010316     -0.008375
      6.56868      2.78511      5.17266         0.003640      0.020064     -0.031756
      4.09474      7.09263      0.96971        -0.008412     -0.012881      0.051367
      4.10808      7.11786      5.22457         0.008885      0.013114     -0.003856
      1.72420      0.10360      1.16705        -0.001807      0.005276      0.006911
     -3.20737      8.55417      5.12951         0.031744      0.010306     -0.000168
     -0.71984      4.33204      1.08099        -0.013281     -0.010832     -0.050444
     -0.73009      4.33819      5.11219         0.001627      0.004851      0.000139
      6.82807      0.02992      1.00083        -0.001770     -0.021712      0.018957
      1.74552      8.62862      5.20373        -0.022344     -0.021431     -0.008760
      4.32327      4.30750      0.99147         0.005422     -0.020172      0.034270
      4.24305      4.35635      5.19391        -0.000423      0.000323     -0.012780
     -0.77289      1.54620      1.16450         0.005743     -0.001382      0.009705
      9.00915      1.50154      5.13354        -0.005312      0.021047     -0.010190
     -3.38817      5.92882      0.99972        -0.019310     -0.019102      0.006154
      6.59685      5.82637      5.20436         0.002847     -0.023350     -0.006043
      4.11020      1.54303      1.08171         0.011286     -0.019868     -0.060002
      4.11829      1.54051      5.11319         0.011943     -0.007672     -0.004417
      1.56885      5.89783      0.99183        -0.024771     -0.007677      0.028757
      1.64838      5.85428      5.19294         0.010933     -0.000484     -0.021906
     -1.77047      8.64872      3.11084        -0.001627     -0.004851     -0.000139
     -1.78072      8.65488      7.14204         0.013281      0.010832      0.050444
      0.70681      4.43274      3.09353        -0.031744     -0.010306      0.000168
      0.77341      4.22626      7.05827         0.001807     -0.005276     -0.006911
      3.25271      8.63057      3.03091         0.000423     -0.000323      0.012780
      8.17066      0.02236      7.23564        -0.005422      0.020172     -0.034270
      5.75024      4.35830      3.02109         0.022344      0.021431      0.008760
      5.66585      4.29994      7.22627         0.001770      0.021712     -0.018957
      1.03904      1.79966      3.53464        -0.027439     -0.028915      0.002912
      0.87102      1.51279      7.02469        -0.014104     -0.029736     -0.005495
     -1.62617      5.90303      3.05246        -0.015077     -0.005128      0.034138
     -1.57585      5.82909      7.19094        -0.003401      0.007204      0.013006
      5.92524      1.54475      3.05444        -0.003640     -0.020064      0.031756
      5.83283      1.55092      7.19373         0.007391      0.010316      0.008375
      3.38768      5.86907      3.00025        -0.008885     -0.013114      0.003856
      3.40102      5.89429      7.25511         0.008412      0.012881     -0.051367
      8.37563      2.78935      3.11391        -0.011943      0.007672      0.004417
      8.38373      2.78683      7.14539        -0.011286      0.019868      0.060002
      5.84738      7.13265      3.03188        -0.010933      0.000484      0.021906
     -4.06941      7.08909      7.23120         0.024771      0.007677     -0.028757
      3.48478      2.82832      3.09356         0.005312     -0.021047      0.010190
      3.27050      2.78366      7.06082        -0.005743      0.001382     -0.009705
      0.89891      7.16055      3.02046        -0.002847      0.023350      0.006043
      0.88761      7.05810      7.22331         0.019310      0.019102     -0.006154
    total drift:                                0.000000     -0.000000      0.000000

  FREE ENERGIE OF THE ION-ELECTRON SYSTEM (eV)
  free  energy   TOTEN  =      -443.04487110 eV

  energy  without entropy=     -443.04487110  energy(sigma->0) =     -443.04487110

 total charge

[...]

 magnetization (x)

# of ion       s       p       d       tot
    1        0.001   0.002   0.000   0.003
    2        0.001   0.002   0.000   0.003
    3        0.001   0.002   0.000   0.003
    4        0.001   0.002   0.000   0.003
    5        0.001   0.002   0.000   0.003
    6        0.001   0.002   0.000   0.003
    7        0.001   0.002   0.000   0.003
    8        0.001   0.002   0.000   0.003
    9        0.026   0.039   3.007   3.072
   10        0.026   0.039   3.006   3.071
   11        0.028   0.045   2.991   3.064
   12        0.028   0.045   2.973   3.045
   13        0.028   0.045   2.972   3.044
   14        0.028   0.045   2.992   3.065
   15        0.027   0.045   2.975   3.047
   16        0.027   0.045   2.976   3.048
   17        0.026   0.039   3.006   3.071
   18        0.026   0.039   3.007   3.072
   19        0.028   0.045   2.973   3.045
   20        0.028   0.045   2.991   3.064
   21        0.028   0.045   2.992   3.065
   22        0.028   0.045   2.972   3.044
   23        0.027   0.045   2.976   3.048
   24        0.027   0.045   2.975   3.047
   25       -0.005  -0.422   0.000  -0.426
   26        0.001  -0.143   0.000  -0.142
   27       -0.006  -0.432   0.000  -0.438
   28       -0.006  -0.445   0.000  -0.452
   29       -0.006  -0.432   0.000  -0.438
   30       -0.006  -0.445   0.000  -0.451
   31       -0.007  -0.450   0.000  -0.457
   32       -0.006  -0.426   0.000  -0.431
   33       -0.005  -0.418   0.000  -0.423
   34       -0.006  -0.440   0.000  -0.446
   35       -0.004  -0.393   0.000  -0.398
   36       -0.006  -0.427   0.000  -0.433
   37       -0.007  -0.445   0.000  -0.452
   38       -0.005  -0.426   0.000  -0.432
   39       -0.007  -0.452   0.000  -0.459
   40       -0.006  -0.442   0.000  -0.447
   41       -0.005  -0.419   0.000  -0.424
   42       -0.006  -0.440   0.000  -0.446
   43       -0.007  -0.445   0.000  -0.452
   44       -0.005  -0.426   0.000  -0.432
   45       -0.004  -0.393   0.000  -0.397
   46       -0.006  -0.426   0.000  -0.432
   47       -0.007  -0.452   0.000  -0.459
   48       -0.006  -0.442   0.000  -0.448
   49       -0.006  -0.427   0.000  -0.433
   50       -0.004  -0.393   0.000  -0.398
   51       -0.006  -0.440   0.000  -0.446
   52       -0.005  -0.418   0.000  -0.423
   53       -0.006  -0.442   0.000  -0.447
   54       -0.007  -0.452   0.000  -0.459
   55       -0.005  -0.426   0.000  -0.432
   56       -0.007  -0.445   0.000  -0.452
   57        0.001  -0.143   0.000  -0.142
   58       -0.005  -0.422   0.000  -0.426
   59       -0.006  -0.445   0.000  -0.452
   60       -0.006  -0.432   0.000  -0.438
   61       -0.006  -0.445   0.000  -0.451
   62       -0.006  -0.432   0.000  -0.438
   63       -0.006  -0.426   0.000  -0.431
   64       -0.007  -0.450   0.000  -0.457
   65       -0.006  -0.426   0.000  -0.432
   66       -0.004  -0.393   0.000  -0.397
   67       -0.006  -0.442   0.000  -0.448
   68       -0.007  -0.452   0.000  -0.459
   69       -0.006  -0.440   0.000  -0.446
   70       -0.005  -0.419   0.000  -0.424
   71       -0.005  -0.426   0.000  -0.432
   72       -0.007  -0.445   0.000  -0.452
tot          0.177 -19.451  47.784  28.510

 BZINTS: Fermi energy:  2.508426;520.000000 electrons
         Band energy:***********;  BLOECHL correction: -0.005343