 vasp.5.4.4.18Apr17-6-g9f103f2a35 (build Dec 07 2017 12:23:07) complex

 executed on     UA-Leibniz-2016b date 2018.10.26  22:46:05

 INCAR:
 POTCAR:    PAW_PBE Li_sv 10Sep2004
 POTCAR:    PAW_PBE Mn_pv 02Aug2007
 POTCAR:    PAW_PBE O 08Apr2002

 POTCAR:    PAW_PBE Li_sv 10Sep2004
   VRHFIN =Li: 1s2s2p

   TITEL  = PAW_PBE Li_sv 10Sep2004
   POMASS =    7.010; ZVAL   =    3.000    mass and valenz
   ENMAX  =  499.034; ENMIN  =  374.276 eV

 POTCAR:    PAW_PBE Mn_pv 02Aug2007
   VRHFIN =Mn: 3p4s3d

   TITEL  = PAW_PBE Mn_pv 02Aug2007
   POMASS =   54.938; ZVAL   =   13.000    mass and valenz
   ENMAX  =  269.864; ENMIN  =  202.398 eV

 POTCAR:    PAW_PBE O 08Apr2002
   VRHFIN =O: s2p4

   TITEL  = PAW_PBE O 08Apr2002
   POMASS =   16.000; ZVAL   =    6.000    mass and valenz
   ENMAX  =  400.000; ENMIN  =  300.000 eV

 Optimization of the real space projectors (new method)

 maximal supplied QI-value         = 22.11
 optimisation between [QCUT,QGAM] = [ 11.28, 22.77] = [ 35.61,145.23] Ry
 Optimized for a Real-space Cutoff    1.10 Angstroem

   l    n(q)    QCUT    max X(q) W(low)/X(q) W(high)/X(q)  e(spline)
   0      7    11.276    10.506    0.54E-04    0.58E-04    0.16E-07
   0      7    11.276     8.367    0.11E-03    0.14E-03    0.35E-07
   1      7    11.276     8.983    0.23E-03    0.43E-03    0.86E-07
 Optimization of the real space projectors (new method)

[...]

   l    n(q)    QCUT    max X(q) W(low)/X(q) W(high)/X(q)  e(spline)
   1     10    11.376     3.658    0.62E-04    0.11E-03    0.11E-06
   1     10    11.376     5.612    0.12E-03    0.20E-03    0.19E-06
   2      9    11.376    55.373    0.10E-03    0.85E-04    0.19E-06
   2      9    11.376    50.863    0.11E-03    0.88E-04    0.19E-06
   0     10    11.376    79.536    0.52E-04    0.21E-04    0.79E-07
   0     10    11.376    38.668    0.45E-04    0.19E-04    0.74E-07
 Optimization of the real space projectors (new method)

 maximal supplied QI-value         = 24.76
 optimisation between [QCUT,QGAM] = [ 11.39, 22.77] = [ 36.31,145.25] Ry
 Optimized for a Real-space Cutoff    1.10 Angstroem

   l    n(q)    QCUT    max X(q) W(low)/X(q) W(high)/X(q)  e(spline)
   0      7    11.387    20.381    0.22E-03    0.48E-03    0.18E-06
   0      7    11.387    15.268    0.22E-03    0.52E-03    0.19E-06
   1      7    11.387     5.964    0.22E-03    0.73E-03    0.24E-06
   1      7    11.387     5.382    0.19E-03    0.60E-03    0.21E-06
  PAW_PBE Li_sv 10Sep2004               :
  PAW_PBE Mn_pv 02Aug2007               :
  PAW_PBE O 08Apr2002                   :

 POSCAR: Li8 Mn16 O48
  positions in direct lattice
 exchange correlation table for  LEXCH =        8
   RHO(1)=    0.500       N(1)  =     2000
   RHO(2)=  100.500       N(2)  =     4000

 ion  position               nearest neighbor table
   1  0.000  0.000  0.000-  41 2.07  68 2.07  54 2.07  33 2.07  58 2.07  31 2.07
   2  0.000  0.000  0.500-  42 2.07  67 2.07  53 2.07  34 2.07  57 2.07  32 2.07
   3  0.000  0.500  0.000-  43 2.07  66 2.07  56 2.07  35 2.07  60 2.07  29 2.07
   4  0.000  0.500  0.500-  44 2.07  65 2.07  55 2.07  36 2.07  59 2.07  30 2.07
   5  0.500  0.000  0.000-  45 2.07  72 2.07  50 2.07  37 2.07  62 2.07  27 2.07
   6  0.500  0.000  0.500-  46 2.07  71 2.07  49 2.07  38 2.07  61 2.07  28 2.07
   7  0.500  0.500  0.000-  47 2.07  70 2.07  52 2.07  39 2.07  64 2.07  25 2.07
   8  0.500  0.500  0.500-  48 2.07  69 2.07  51 2.07  40 2.07  63 2.07  26 2.07
   9  0.167  0.333  0.250-  25 1.90  41 1.90  35 1.90  57 1.90  51 1.90  65 1.90  17 2.89  19 2.89
                            21 2.89
  10  0.167  0.333  0.750-  26 1.90  42 1.90  36 1.90  58 1.90  52 1.90  66 1.90  18 2.89  20 2.89
                            22 2.89
  11  0.167  0.833  0.250-  27 1.90  43 1.90  33 1.90  59 1.90  49 1.90  67 1.90  19 2.89  17 2.89
                            23 2.89
  12  0.167  0.833  0.750-  28 1.90  44 1.90  34 1.90  60 1.90  50 1.90  68 1.90  20 2.89  18 2.89
                            24 2.89
  13  0.667  0.333  0.250-  29 1.90  45 1.90  39 1.90  61 1.90  55 1.90  69 1.90  21 2.89  23 2.89
                            17 2.89
  14  0.667  0.333  0.750-  30 1.90  46 1.90  40 1.90  62 1.90  56 1.90  70 1.90  22 2.89  24 2.89
                            18 2.89
  15  0.667  0.833  0.250-  31 1.90  47 1.90  37 1.90  63 1.90  53 1.90  71 1.90  23 2.89  21 2.89
                            19 2.89
  16  0.667  0.833  0.750-  32 1.90  48 1.90  38 1.90  64 1.90  54 1.90  72 1.90  24 2.89  22 2.89
                            20 2.89
  17  0.333  0.167  0.250-  57 1.90  69 1.90  49 1.90  25 1.90  33 1.90  45 1.90   9 2.89  11 2.89
                            13 2.89
  18  0.333  0.167  0.750-  58 1.90  70 1.90  50 1.90  26 1.90  34 1.90  46 1.90  10 2.89  12 2.89
                            14 2.89
  19  0.333  0.667  0.250-  59 1.90  71 1.90  51 1.90  27 1.90  35 1.90  47 1.90  11 2.89   9 2.89
                            15 2.89
  20  0.333  0.667  0.750-  60 1.90  72 1.90  52 1.90  28 1.90  36 1.90  48 1.90  12 2.89  10 2.89
                            16 2.89
  21  0.833  0.167  0.250-  61 1.90  65 1.90  53 1.90  29 1.90  37 1.90  41 1.90  13 2.89  15 2.89
                             9 2.89
  22  0.833  0.167  0.750-  62 1.90  66 1.90  54 1.90  30 1.90  38 1.90  42 1.90  14 2.89  16 2.89
                            10 2.89
  23  0.833  0.667  0.250-  63 1.90  67 1.90  55 1.90  31 1.90  39 1.90  43 1.90  15 2.89  13 2.89
                            11 2.89
  24  0.833  0.667  0.750-  64 1.90  68 1.90  56 1.90  32 1.90  40 1.90  44 1.90  16 2.89  14 2.89
                            12 2.89
  25  0.321  0.321  0.127-   9 1.90  17 1.90   7 2.07
  26  0.321  0.321  0.627-  10 1.90  18 1.90   8 2.07
  27  0.321  0.821  0.127-  11 1.90  19 1.90   5 2.07
  28  0.321  0.821  0.627-  12 1.90  20 1.90   6 2.07
  29  0.821  0.321  0.127-  13 1.90  21 1.90   3 2.07
  30  0.821  0.321  0.627-  14 1.90  22 1.90   4 2.07
  31  0.821  0.821  0.127-  15 1.90  23 1.90   1 2.07
  32  0.821  0.821  0.627-  16 1.90  24 1.90   2 2.07
  33  0.179  0.000  0.127-  11 1.90  17 1.90   1 2.07
  34  0.179  0.000  0.627-  12 1.90  18 1.90   2 2.07
  35  0.179  0.500  0.127-   9 1.90  19 1.90   3 2.07
  36  0.179  0.500  0.627-  10 1.90  20 1.90   4 2.07
  37  0.679  0.000  0.127-  15 1.90  21 1.90   5 2.07
  38  0.679  0.000  0.627-  16 1.90  22 1.90   6 2.07
  39  0.679  0.500  0.127-  13 1.90  23 1.90   7 2.07
  40  0.679  0.500  0.627-  14 1.90  24 1.90   8 2.07
  41  0.000  0.179  0.127-   9 1.90  21 1.90   1 2.07
  42  0.000  0.179  0.627-  10 1.90  22 1.90   2 2.07
  43  0.000  0.679  0.127-  11 1.90  23 1.90   3 2.07
  44  0.000  0.679  0.627-  12 1.90  24 1.90   4 2.07
  45  0.500  0.179  0.127-  13 1.90  17 1.90   5 2.07
  46  0.500  0.179  0.627-  14 1.90  18 1.90   6 2.07
  47  0.500  0.679  0.127-  15 1.90  19 1.90   7 2.07
  48  0.500  0.679  0.627-  16 1.90  20 1.90   8 2.07
  49  0.321  0.000  0.373-  17 1.90  11 1.90   6 2.07
  50  0.321  0.000  0.873-  18 1.90  12 1.90   5 2.07
  51  0.321  0.500  0.373-  19 1.90   9 1.90   8 2.07
  52  0.321  0.500  0.873-  20 1.90  10 1.90   7 2.07
  53  0.821  0.000  0.373-  21 1.90  15 1.90   2 2.07
  54  0.821  0.000  0.873-  22 1.90  16 1.90   1 2.07
  55  0.821  0.500  0.373-  23 1.90  13 1.90   4 2.07
  56  0.821  0.500  0.873-  24 1.90  14 1.90   3 2.07
  57  0.179  0.179  0.373-  17 1.90   9 1.90   2 2.07
  58  0.179  0.179  0.873-  18 1.90  10 1.90   1 2.07
  59  0.179  0.679  0.373-  19 1.90  11 1.90   4 2.07
  60  0.179  0.679  0.873-  20 1.90  12 1.90   3 2.07
  61  0.679  0.179  0.373-  21 1.90  13 1.90   6 2.07
  62  0.679  0.179  0.873-  22 1.90  14 1.90   5 2.07
  63  0.679  0.679  0.373-  23 1.90  15 1.90   8 2.07
  64  0.679  0.679  0.873-  24 1.90  16 1.90   7 2.07
  65  0.000  0.321  0.373-  21 1.90   9 1.90   4 2.07
  66  0.000  0.321  0.873-  22 1.90  10 1.90   3 2.07
  67  0.000  0.821  0.373-  23 1.90  11 1.90   2 2.07
  68  0.000  0.821  0.873-  24 1.90  12 1.90   1 2.07
  69  0.500  0.321  0.373-  17 1.90  13 1.90   8 2.07
  70  0.500  0.321  0.873-  18 1.90  14 1.90   7 2.07
  71  0.500  0.821  0.373-  19 1.90  15 1.90   6 2.07
  72  0.500  0.821  0.873-  20 1.90  16 1.90   5 2.07

  LATTYP: Found a hexagonal cell.
 ALAT       =     9.9963163228
 C/A-ratio  =     0.8228598387

  Lattice vectors:

 A1 = (   9.9963160000,   0.0000090000,   0.0017840000)
 A2 = (  -4.9981650000,   8.6570590000,  -0.0022840000)
 A3 = (  -0.0014680000,   0.0013220000,   8.2255670000)

Analysis of symmetry for initial positions (statically):
 Subroutine PRICEL returns following result:

[...]

   8 primitive cells build up your supercell.

 Routine SETGRP: Setting up the symmetry group for a
 hexagonal supercell.

 Subroutine GETGRP returns: Found 12 space group operations
 (whereof 12 operations were pure point group operations)
 out of a pool of 24 trial point group operations.

The static configuration has the point symmetry D_3d.

Analysis of symmetry for dynamics (positions and initial velocities):
 Subroutine PRICEL returns following result:

[...]

The dynamic configuration has the point symmetry D_3d.

Analysis of structural, dynamic, and magnetic symmetry:
 Subroutine PRICEL returns following result:

  LATTYP: Found a hexagonal cell.
 ALAT       =     4.9981581614
 C/A-ratio  =     0.8228598387

  Lattice vectors:

 A1 = (   4.9981580000,   0.0000045000,   0.0008920000)
 A2 = (  -2.4990825000,   4.3285295000,  -0.0011420000)
 A3 = (  -0.0007340000,   0.0006610000,   4.1127835000)

   8 primitive cells build up your supercell.

 Routine SETGRP: Setting up the symmetry group for a
 hexagonal supercell.

 Subroutine GETGRP returns: Found  2 space group operations
 (whereof  2 operations were pure point group operations)
 out of a pool of 24 trial point group operations.

The magnetic configuration has the point symmetry S_2 .

 Subroutine INISYM returns: Found  2 space group operations
 (whereof  2 operations are pure point group operations),
 and found     8 'primitive' translations

 KPOINTS: pymatgen 4.7.6+ generated KPOINTS with g

Automatic generation of k-mesh.
Space group operators:
 irot       det(A)        alpha          n_x          n_y          n_z        tau_x        tau_y        tau_z
    1     1.000000     0.000001     1.000000     0.000000     0.000000     0.000000     0.000000     0.000000
    2    -1.000000     0.000001     1.000000     0.000000     0.000000     0.000000     0.000000     0.000000

 Subroutine IBZKPT returns following result:

 Found     19 irreducible k-points:

 Following reciprocal coordinates:
            Coordinates               Weight
  0.000000  0.000000  0.000000      1.000000
  0.333333 -0.000000 -0.000000      2.000000
 -0.000000  0.333333  0.000000      2.000000
  0.333333  0.333333  0.000000      2.000000
 -0.333333  0.333333  0.000000      2.000000
 -0.000000 -0.000000  0.250000      2.000000
  0.333333 -0.000000  0.250000      2.000000
 -0.333333  0.000000  0.250000      2.000000
 -0.000000  0.333333  0.250000      2.000000
  0.333333  0.333333  0.250000      2.000000
 -0.333333  0.333333  0.250000      2.000000
 -0.000000 -0.333333  0.250000      2.000000
[...]
   0.152E-03 0.133E-02 0.188E-03   0.435E-02 -.247E-02 0.201E-04   0.456E-02 -.187E-02 -.924E-04   -.744E-02 0.321E-02 0.464E-06
   0.152E-03 0.133E-02 0.188E-03   0.435E-02 -.247E-02 0.201E-04   0.456E-02 -.187E-02 -.924E-04   -.744E-02 0.321E-02 0.464E-06
   0.152E-03 0.133E-02 0.188E-03   0.435E-02 -.247E-02 0.201E-04   0.456E-02 -.187E-02 -.924E-04   -.744E-02 0.321E-02 0.464E-06
   0.152E-03 0.133E-02 0.188E-03   0.435E-02 -.247E-02 0.201E-04   0.456E-02 -.187E-02 -.924E-04   -.744E-02 0.321E-02 0.464E-06
   0.152E-03 0.133E-02 0.188E-03   0.435E-02 -.247E-02 0.201E-04   0.456E-02 -.187E-02 -.924E-04   -.744E-02 0.321E-02 0.464E-06
   -.782E+02 -.135E+03 0.202E+03   0.840E+02 0.145E+03 -.217E+03   -.586E+01 -.101E+02 0.154E+02   -.444E-03 -.741E-03 -.132E-03
   -.782E+02 -.135E+03 0.202E+03   0.840E+02 0.145E+03 -.217E+03   -.586E+01 -.101E+02 0.154E+02   -.444E-03 -.741E-03 -.132E-03
   -.782E+02 -.135E+03 0.202E+03   0.840E+02 0.145E+03 -.217E+03   -.586E+01 -.101E+02 0.154E+02   -.444E-03 -.741E-03 -.132E-03
   -.782E+02 -.135E+03 0.202E+03   0.840E+02 0.145E+03 -.217E+03   -.586E+01 -.101E+02 0.154E+02   -.444E-03 -.741E-03 -.132E-03
   -.782E+02 -.135E+03 0.202E+03   0.840E+02 0.145E+03 -.217E+03   -.586E+01 -.101E+02 0.154E+02   -.444E-03 -.741E-03 -.132E-03
   -.782E+02 -.135E+03 0.202E+03   0.840E+02 0.145E+03 -.217E+03   -.586E+01 -.101E+02 0.154E+02   -.444E-03 -.741E-03 -.132E-03
   -.782E+02 -.135E+03 0.202E+03   0.840E+02 0.145E+03 -.217E+03   -.586E+01 -.101E+02 0.154E+02   -.444E-03 -.741E-03 -.132E-03
   -.782E+02 -.135E+03 0.202E+03   0.840E+02 0.145E+03 -.217E+03   -.586E+01 -.101E+02 0.154E+02   -.444E-03 -.741E-03 -.132E-03
   0.156E+03 0.299E-01 0.202E+03   -.168E+03 -.339E-01 -.218E+03   0.117E+02 0.334E-02 0.154E+02   -.737E-03 0.102E-02 0.324E-03
   0.156E+03 0.299E-01 0.202E+03   -.168E+03 -.339E-01 -.218E+03   0.117E+02 0.334E-02 0.154E+02   -.737E-03 0.102E-02 0.324E-03
   0.156E+03 0.299E-01 0.202E+03   -.168E+03 -.339E-01 -.218E+03   0.117E+02 0.334E-02 0.154E+02   -.737E-03 0.102E-02 0.324E-03
   0.156E+03 0.299E-01 0.202E+03   -.168E+03 -.339E-01 -.218E+03   0.117E+02 0.334E-02 0.154E+02   -.737E-03 0.102E-02 0.324E-03
   0.156E+03 0.299E-01 0.202E+03   -.168E+03 -.339E-01 -.218E+03   0.117E+02 0.334E-02 0.154E+02   -.737E-03 0.102E-02 0.324E-03
   0.156E+03 0.299E-01 0.202E+03   -.168E+03 -.339E-01 -.218E+03   0.117E+02 0.334E-02 0.154E+02   -.737E-03 0.102E-02 0.324E-03
   0.156E+03 0.299E-01 0.202E+03   -.168E+03 -.339E-01 -.218E+03   0.117E+02 0.334E-02 0.154E+02   -.737E-03 0.102E-02 0.324E-03
   0.156E+03 0.299E-01 0.202E+03   -.168E+03 -.339E-01 -.218E+03   0.117E+02 0.334E-02 0.154E+02   -.737E-03 0.102E-02 0.324E-03
   -.782E+02 0.135E+03 0.202E+03   0.840E+02 -.146E+03 -.217E+03   -.585E+01 0.101E+02 0.154E+02   0.113E-02 0.220E-04 0.603E-03
   -.782E+02 0.135E+03 0.202E+03   0.840E+02 -.146E+03 -.217E+03   -.585E+01 0.101E+02 0.154E+02   0.113E-02 0.220E-04 0.603E-03
   -.782E+02 0.135E+03 0.202E+03   0.840E+02 -.146E+03 -.217E+03   -.585E+01 0.101E+02 0.154E+02   0.113E-02 0.220E-04 0.603E-03
   -.782E+02 0.135E+03 0.202E+03   0.840E+02 -.146E+03 -.217E+03   -.585E+01 0.101E+02 0.154E+02   0.113E-02 0.220E-04 0.603E-03
   -.782E+02 0.135E+03 0.202E+03   0.840E+02 -.146E+03 -.217E+03   -.585E+01 0.101E+02 0.154E+02   0.113E-02 0.220E-04 0.603E-03
   -.782E+02 0.135E+03 0.202E+03   0.840E+02 -.146E+03 -.217E+03   -.585E+01 0.101E+02 0.154E+02   0.113E-02 0.220E-04 0.603E-03
   -.782E+02 0.135E+03 0.202E+03   0.840E+02 -.146E+03 -.217E+03   -.585E+01 0.101E+02 0.154E+02   0.113E-02 0.220E-04 0.603E-03
   -.782E+02 0.135E+03 0.202E+03   0.840E+02 -.146E+03 -.217E+03   -.585E+01 0.101E+02 0.154E+02   0.113E-02 0.220E-04 0.603E-03
   -.156E+03 -.299E-01 -.202E+03   0.168E+03 0.339E-01 0.218E+03   -.117E+02 -.334E-02 -.154E+02   0.737E-03 -.102E-02 -.324E-03
   -.156E+03 -.299E-01 -.202E+03   0.168E+03 0.339E-01 0.218E+03   -.117E+02 -.334E-02 -.154E+02   0.737E-03 -.102E-02 -.324E-03
   -.156E+03 -.299E-01 -.202E+03   0.168E+03 0.339E-01 0.218E+03   -.117E+02 -.334E-02 -.154E+02   0.737E-03 -.102E-02 -.324E-03
   -.156E+03 -.299E-01 -.202E+03   0.168E+03 0.339E-01 0.218E+03   -.117E+02 -.334E-02 -.154E+02   0.737E-03 -.102E-02 -.324E-03
   -.156E+03 -.299E-01 -.202E+03   0.168E+03 0.339E-01 0.218E+03   -.117E+02 -.334E-02 -.154E+02   0.737E-03 -.102E-02 -.324E-03
   -.156E+03 -.299E-01 -.202E+03   0.168E+03 0.339E-01 0.218E+03   -.117E+02 -.334E-02 -.154E+02   0.737E-03 -.102E-02 -.324E-03
   -.156E+03 -.299E-01 -.202E+03   0.168E+03 0.339E-01 0.218E+03   -.117E+02 -.334E-02 -.154E+02   0.737E-03 -.102E-02 -.324E-03
   -.156E+03 -.299E-01 -.202E+03   0.168E+03 0.339E-01 0.218E+03   -.117E+02 -.334E-02 -.154E+02   0.737E-03 -.102E-02 -.324E-03
   0.782E+02 0.135E+03 -.202E+03   -.840E+02 -.145E+03 0.217E+03   0.586E+01 0.101E+02 -.154E+02   0.444E-03 0.741E-03 0.132E-03
   0.782E+02 0.135E+03 -.202E+03   -.840E+02 -.145E+03 0.217E+03   0.586E+01 0.101E+02 -.154E+02   0.444E-03 0.741E-03 0.132E-03
   0.782E+02 0.135E+03 -.202E+03   -.840E+02 -.145E+03 0.217E+03   0.586E+01 0.101E+02 -.154E+02   0.444E-03 0.741E-03 0.132E-03
   0.782E+02 0.135E+03 -.202E+03   -.840E+02 -.145E+03 0.217E+03   0.586E+01 0.101E+02 -.154E+02   0.444E-03 0.741E-03 0.132E-03
   0.782E+02 0.135E+03 -.202E+03   -.840E+02 -.145E+03 0.217E+03   0.586E+01 0.101E+02 -.154E+02   0.444E-03 0.741E-03 0.132E-03
   0.782E+02 0.135E+03 -.202E+03   -.840E+02 -.145E+03 0.217E+03   0.586E+01 0.101E+02 -.154E+02   0.444E-03 0.741E-03 0.132E-03
   0.782E+02 0.135E+03 -.202E+03   -.840E+02 -.145E+03 0.217E+03   0.586E+01 0.101E+02 -.154E+02   0.444E-03 0.741E-03 0.132E-03
   0.782E+02 0.135E+03 -.202E+03   -.840E+02 -.145E+03 0.217E+03   0.586E+01 0.101E+02 -.154E+02   0.444E-03 0.741E-03 0.132E-03
   0.782E+02 -.135E+03 -.202E+03   -.840E+02 0.146E+03 0.217E+03   0.585E+01 -.101E+02 -.154E+02   -.113E-02 -.220E-04 -.603E-03
   0.782E+02 -.135E+03 -.202E+03   -.840E+02 0.146E+03 0.217E+03   0.585E+01 -.101E+02 -.154E+02   -.113E-02 -.220E-04 -.603E-03
   0.782E+02 -.135E+03 -.202E+03   -.840E+02 0.146E+03 0.217E+03   0.585E+01 -.101E+02 -.154E+02   -.113E-02 -.220E-04 -.603E-03
   0.782E+02 -.135E+03 -.202E+03   -.840E+02 0.146E+03 0.217E+03   0.585E+01 -.101E+02 -.154E+02   -.113E-02 -.220E-04 -.603E-03
   0.782E+02 -.135E+03 -.202E+03   -.840E+02 0.146E+03 0.217E+03   0.585E+01 -.101E+02 -.154E+02   -.113E-02 -.220E-04 -.603E-03
   0.782E+02 -.135E+03 -.202E+03   -.840E+02 0.146E+03 0.217E+03   0.585E+01 -.101E+02 -.154E+02   -.113E-02 -.220E-04 -.603E-03
   0.782E+02 -.135E+03 -.202E+03   -.840E+02 0.146E+03 0.217E+03   0.585E+01 -.101E+02 -.154E+02   -.113E-02 -.220E-04 -.603E-03
   0.782E+02 -.135E+03 -.202E+03   -.840E+02 0.146E+03 0.217E+03   0.585E+01 -.101E+02 -.154E+02   -.113E-02 -.220E-04 -.603E-03
   -.149E-10 0.209E-10 -.235E-09   -.739E-12 0.313E-12 0.131E-11   0.888E-14 0.178E-14 -.494E-12   -.472E-12 0.108E-11 -.173E-11

 POSITION                                       TOTAL-FORCE (eV/Angst)
      0.00000      0.00000      0.00000         0.000000      0.000000      0.000000
     -0.00073      0.00066      4.11278         0.000000      0.000000      0.000000
     -2.49908      4.32853     -0.00114         0.000000      0.000000      0.000000
     -2.49982      4.32919      4.11164         0.000000      0.000000      0.000000
      4.99816      0.00000      0.00089         0.000000      0.000000      0.000000
      4.99742      0.00067      4.11368         0.000000      0.000000      0.000000
      2.49908      4.32853     -0.00025         0.000000      0.000000      0.000000
      2.49834      4.32920      4.11253         0.000000      0.000000      0.000000
     -0.00036      2.88602      2.05592        -0.001620     -0.000194     -0.000116
     -0.00110      2.88668      6.16870        -0.001620     -0.000194     -0.000116
     -2.49945      7.21454      2.05478        -0.001620     -0.000194     -0.000116
     -2.50018      7.21521      6.16756        -0.001620     -0.000194     -0.000116
      4.99779      2.88602      2.05681        -0.001620     -0.000194     -0.000116
      4.99706      2.88668      6.16960        -0.001620     -0.000194     -0.000116
      2.49871      7.21455      2.05567        -0.001620     -0.000194     -0.000116
      2.49798      7.21521      6.16845        -0.001620     -0.000194     -0.000116
      2.49871      1.44318      2.05661         0.001620      0.000194      0.000116
      2.49797      1.44384      6.16940         0.001620      0.000194      0.000116
     -0.00038      5.77171      2.05547         0.001620      0.000194      0.000116
     -0.00111      5.77237      6.16826         0.001620      0.000194      0.000116
      7.49686      1.44318      2.05751         0.001620      0.000194      0.000116
      7.49613      1.44385      6.17029         0.001620      0.000194      0.000116
      4.99778      5.77171      2.05636         0.001620      0.000194      0.000116
      4.99705      5.77237      6.16915         0.001620      0.000194      0.000116
      1.60652      2.78307      1.04560         0.006505      0.011178     -0.022810
      1.60578      2.78373      5.15838         0.006505      0.011178     -0.022810
     -0.89256      7.11160      1.04445         0.006505      0.011178     -0.022810
     -0.89330      7.11226      5.15724         0.006505      0.011178     -0.022810
      6.60468      2.78307      1.04649         0.006505      0.011178     -0.022810
      6.60394      2.78373      5.15927         0.006505      0.011178     -0.022810
      4.10559      7.11160      1.04535         0.006505      0.011178     -0.022810
      4.10486      7.11226      5.15813         0.006505      0.011178     -0.022810
      1.78456      0.00017      1.04608        -0.012232      0.000353     -0.022053
      1.78382      0.00083      5.15886        -0.012232      0.000353     -0.022053
     -0.71453      4.32870      1.04493        -0.012232      0.000353     -0.022053
     -0.71526      4.32936      5.15772        -0.012232      0.000353     -0.022053
      6.78271      0.00017      1.04697        -0.012232      0.000353     -0.022053
      6.78198      0.00084      5.15975        -0.012232      0.000353     -0.022053
      4.28363      4.32870      1.04583        -0.012232      0.000353     -0.022053
      4.28290      4.32936      5.15861        -0.012232      0.000353     -0.022053
     -0.89256      1.54580      1.04535         0.006004     -0.009723     -0.025305
     -0.89329      1.54646      5.15813         0.006004     -0.009723     -0.025305
     -3.39164      5.87433      1.04421         0.006004     -0.009723     -0.025305
     -3.39238      5.87499      5.15699         0.006004     -0.009723     -0.025305
      4.10560      1.54580      1.04624         0.006004     -0.009723     -0.025305
      4.10486      1.54646      5.15903         0.006004     -0.009723     -0.025305
      1.60652      5.87433      1.04510         0.006004     -0.009723     -0.025305
      1.60578      5.87499      5.15788         0.006004     -0.009723     -0.025305
      3.21287      0.00050      3.06760         0.012232     -0.000353      0.022053
      3.21213      0.00116      7.18038         0.012232     -0.000353      0.022053
      0.71379      4.32903      3.06646         0.012232     -0.000353      0.022053
      0.71305      4.32969      7.17924         0.012232     -0.000353      0.022053
      8.21103      0.00050      3.06849         0.012232     -0.000353      0.022053
      8.21029      0.00116      7.18128         0.012232     -0.000353      0.022053
      5.71194      4.32903      3.06735         0.012232     -0.000353      0.022053
      5.71121      4.32969      7.18013         0.012232     -0.000353      0.022053
      0.89182      1.54613      3.06694        -0.006505     -0.011178      0.022810
      0.89109      1.54679      7.17972        -0.006505     -0.011178      0.022810
     -1.60726      5.87466      3.06579        -0.006505     -0.011178      0.022810
     -1.60799      5.87532      7.17858        -0.006505     -0.011178      0.022810
      5.88998      1.54613      3.06783        -0.006505     -0.011178      0.022810
      5.88925      1.54679      7.18061        -0.006505     -0.011178      0.022810
      3.39090      5.87466      3.06669        -0.006505     -0.011178      0.022810
      3.39016      5.87532      7.17947        -0.006505     -0.011178      0.022810
     -1.60726      2.78339      3.06629        -0.006004      0.009723      0.025305
     -1.60799      2.78405      7.17908        -0.006004      0.009723      0.025305
     -4.10634      7.11192      3.06515        -0.006004      0.009723      0.025305
     -4.10707      7.11258      7.17793        -0.006004      0.009723      0.025305
      3.39090      2.78340      3.06718        -0.006004      0.009723      0.025305
      3.39017      2.78406      7.17997        -0.006004      0.009723      0.025305
      0.89182      7.11193      3.06604        -0.006004      0.009723      0.025305
      0.89108      7.11259      7.17883        -0.006004      0.009723      0.025305
    total drift:                               -0.000000      0.000000     -0.000000

  FREE ENERGIE OF THE ION-ELECTRON SYSTEM (eV)
  free  energy   TOTEN  =      -442.49177984 eV

  energy  without entropy=     -442.49177984  energy(sigma->0) =     -442.49177984

 total charge

[...]

 magnetization (x)

# of ion       s       p       d       tot
    1        0.001   0.002   0.000   0.003
    2        0.001   0.002   0.000   0.003
    3        0.001   0.002   0.000   0.003
    4        0.001   0.002   0.000   0.003
    5        0.001   0.002   0.000   0.003
    6        0.001   0.002   0.000   0.003
    7        0.001   0.002   0.000   0.003
    8        0.001   0.002   0.000   0.003
    9        0.028   0.045   2.974   3.046
   10        0.028   0.045   2.974   3.046
   11        0.028   0.045   2.974   3.046
   12        0.028   0.045   2.974   3.046
   13        0.028   0.045   2.974   3.046
   14        0.028   0.045   2.974   3.046
   15        0.028   0.045   2.974   3.046
   16        0.028   0.045   2.974   3.046
   17        0.028   0.045   2.974   3.046
   18        0.028   0.045   2.974   3.046
   19        0.028   0.045   2.974   3.046
   20        0.028   0.045   2.974   3.046
   21        0.028   0.045   2.974   3.046
   22        0.028   0.045   2.974   3.046
   23        0.028   0.045   2.974   3.046
   24        0.028   0.045   2.974   3.046
   25       -0.006  -0.450   0.000  -0.457
   26       -0.006  -0.450   0.000  -0.457
   27       -0.006  -0.450   0.000  -0.457
   28       -0.006  -0.450   0.000  -0.457
   29       -0.006  -0.450   0.000  -0.457
   30       -0.006  -0.450   0.000  -0.457
   31       -0.006  -0.450   0.000  -0.457
   32       -0.006  -0.450   0.000  -0.457
   33       -0.006  -0.451   0.000  -0.457
   34       -0.006  -0.451   0.000  -0.457
   35       -0.006  -0.451   0.000  -0.457
   36       -0.006  -0.451   0.000  -0.457
   37       -0.006  -0.451   0.000  -0.457
   38       -0.006  -0.451   0.000  -0.457
   39       -0.006  -0.451   0.000  -0.457
   40       -0.006  -0.451   0.000  -0.457
   41       -0.006  -0.451   0.000  -0.457
   42       -0.006  -0.451   0.000  -0.457
   43       -0.006  -0.451   0.000  -0.457
   44       -0.006  -0.451   0.000  -0.457
   45       -0.006  -0.451   0.000  -0.457
   46       -0.006  -0.451   0.000  -0.457
   47       -0.006  -0.451   0.000  -0.457
   48       -0.006  -0.451   0.000  -0.457
   49       -0.006  -0.451   0.000  -0.457
   50       -0.006  -0.451   0.000  -0.457
   51       -0.006  -0.451   0.000  -0.457
   52       -0.006  -0.451   0.000  -0.457
   53       -0.006  -0.451   0.000  -0.457
   54       -0.006  -0.451   0.000  -0.457
   55       -0.006  -0.451   0.000  -0.457
   56       -0.006  -0.451   0.000  -0.457
   57       -0.006  -0.450   0.000  -0.457
   58       -0.006  -0.450   0.000  -0.457
   59       -0.006  -0.450   0.000  -0.457
   60       -0.006  -0.450   0.000  -0.457
   61       -0.006  -0.450   0.000  -0.457
   62       -0.006  -0.450   0.000  -0.457
   63       -0.006  -0.450   0.000  -0.457
   64       -0.006  -0.450   0.000  -0.457
   65       -0.006  -0.451   0.000  -0.457
   66       -0.006  -0.451   0.000  -0.457
   67       -0.006  -0.451   0.000  -0.457
   68       -0.006  -0.451   0.000  -0.457
   69       -0.006  -0.451   0.000  -0.457
   70       -0.006  -0.451   0.000  -0.457
   71       -0.006  -0.451   0.000  -0.457
   72       -0.006  -0.451   0.000  -0.457
tot          0.147 -20.884  47.582  26.845

 BZINTS: Fermi energy:  2.403160;520.000000 electrons
         Band energy:***********;  BLOECHL correction: -0.006929