 vasp.5.4.4.18Apr17-6-g9f103f2a35 (build Dec 07 2017 12:23:07) complex

 executed on     UA-Leibniz-2016b date 2018.11.06  12:41:17

 INCAR:
 POTCAR:    PAW_PBE Li_sv 10Sep2004
 POTCAR:    PAW_PBE Ir 06Sep2000
 POTCAR:    PAW_PBE O 08Apr2002

 POTCAR:    PAW_PBE Li_sv 10Sep2004
   VRHFIN =Li: 1s2s2p

   TITEL  = PAW_PBE Li_sv 10Sep2004
   POMASS =    7.010; ZVAL   =    3.000    mass and valenz
   ENMAX  =  499.034; ENMIN  =  374.276 eV

 POTCAR:    PAW_PBE Ir 06Sep2000
   VRHFIN =Ir: s1d8

   TITEL  = PAW_PBE Ir 06Sep2000
   POMASS =  192.220; ZVAL   =    9.000    mass and valenz
   ENMAX  =  210.864; ENMIN  =  158.148 eV

 POTCAR:    PAW_PBE O 08Apr2002
   VRHFIN =O: s2p4

   TITEL  = PAW_PBE O 08Apr2002
   POMASS =   16.000; ZVAL   =    6.000    mass and valenz
   ENMAX  =  400.000; ENMIN  =  300.000 eV

 Optimization of the real space projectors (new method)

 maximal supplied QI-value         = 22.11
 optimisation between [QCUT,QGAM] = [ 11.28, 22.77] = [ 35.61,145.23] Ry
 Optimized for a Real-space Cutoff    1.07 Angstroem

   l    n(q)    QCUT    max X(q) W(low)/X(q) W(high)/X(q)  e(spline)
   0      7    11.276    10.506    0.35E-04    0.79E-04    0.14E-07
   0      7    11.276     8.367    0.77E-04    0.18E-03    0.29E-07
   1      7    11.276     8.983    0.48E-03    0.57E-03    0.79E-07
 Optimization of the real space projectors (new method)

[...]

   l    n(q)    QCUT    max X(q) W(low)/X(q) W(high)/X(q)  e(spline)
   2      9    11.346   134.116    0.47E-03    0.13E-03    0.92E-06
   2      9    11.346   130.192    0.47E-03    0.13E-03    0.92E-06
   0     10    11.346    60.310    0.74E-04    0.13E-03    0.69E-06
   0     10    11.346    39.218    0.68E-04    0.12E-03    0.65E-06
   1     10    11.346    18.439    0.15E-03    0.34E-04    0.20E-06
   1     10    11.346    12.760    0.12E-03    0.31E-04    0.16E-06
 Optimization of the real space projectors (new method)

 maximal supplied QI-value         = 24.76
 optimisation between [QCUT,QGAM] = [ 11.39, 22.77] = [ 36.31,145.25] Ry
 Optimized for a Real-space Cutoff    1.00 Angstroem

   l    n(q)    QCUT    max X(q) W(low)/X(q) W(high)/X(q)  e(spline)
   0      7    11.387    20.381    0.39E-03    0.13E-02    0.15E-06
   0      7    11.387    15.268    0.42E-03    0.14E-02    0.17E-06
   1      6    11.387     5.964    0.41E-03    0.11E-02    0.17E-06
   1      6    11.387     5.382    0.39E-03    0.87E-03    0.15E-06
  PAW_PBE Li_sv 10Sep2004               :
  PAW_PBE Ir 06Sep2000                  :
  PAW_PBE O 08Apr2002                   :

 POSCAR: Li1 Ir2 O6
  positions in direct lattice
  velocities in cartesian coordinates
 exchange correlation table for  LEXCH =        8
   RHO(1)=    0.500       N(1)  =     2000
   RHO(2)=  100.500       N(2)  =     4000

 ion  position               nearest neighbor table
   1  0.000  0.000  0.000-   5 2.20   6 2.20   7 2.20   9 2.20   8 2.20   4 2.20
   2  0.333  0.667  0.500-   5 1.95   9 1.95   7 1.95   6 1.95   8 1.95   4 1.95   3 2.98   3 2.98
                             3 2.98
   3  0.667  0.333  0.500-   6 1.95   7 1.95   5 1.95   9 1.95   8 1.95   4 1.95   2 2.98   2 2.98
                             2 2.98
   4  0.356  0.356  0.728-   2 1.95   3 1.95   1 2.20
   5  0.000  0.644  0.728-   2 1.95   3 1.95   1 2.20
   6  0.644  0.000  0.728-   3 1.95   2 1.95   1 2.20
   7  1.000  0.356  0.272-   3 1.95   2 1.95   1 2.20
   8  0.644  0.644  0.272-   2 1.95   3 1.95   1 2.20
   9  0.356  1.000  0.272-   2 1.95   3 1.95   1 2.20

  LATTYP: Found a hexagonal cell.
 ALAT       =     5.1583498944
 C/A-ratio  =     0.8605395763

  Lattice vectors:

 A1 = (   2.5791749472,  -4.4672614266,   0.0000000000)
 A2 = (   2.5791749472,   4.4672614266,   0.0000000000)
 A3 = (   0.0000000000,   0.0000000000,   4.4389642326)

Analysis of symmetry for initial positions (statically):
 Subroutine PRICEL returns:
 Original cell was already a primitive cell.

 Routine SETGRP: Setting up the symmetry group for a
 hexagonal supercell.

 Subroutine GETGRP returns: Found 12 space group operations
 (whereof 12 operations were pure point group operations)
 out of a pool of 24 trial point group operations.

The static configuration has the point symmetry D_3d.

Analysis of symmetry for dynamics (positions and initial velocities):
 Subroutine PRICEL returns:
 Original cell was already a primitive cell.

[...]

The dynamic configuration has the point symmetry D_3d.

Analysis of structural, dynamic, and magnetic symmetry:
 Subroutine PRICEL returns:
 Original cell was already a primitive cell.

 Routine SETGRP: Setting up the symmetry group for a
 hexagonal supercell.

 Subroutine GETGRP returns: Found 12 space group operations
 (whereof 12 operations were pure point group operations)
 out of a pool of 24 trial point group operations.

The magnetic configuration has the point symmetry D_3d.

 Subroutine INISYM returns: Found 12 space group operations
 (whereof 12 operations are pure point group operations),
 and found     1 'primitive' translations

 KPOINTS: pymatgen 4.7.6+ generated KPOINTS with g

Automatic generation of k-mesh.
Space group operators:
 irot       det(A)        alpha          n_x          n_y          n_z        tau_x        tau_y        tau_z
    1     1.000000     0.000000     1.000000     0.000000     0.000000     0.000000     0.000000     0.000000
    2    -1.000000     0.000000     1.000000     0.000000     0.000000     0.000000     0.000000     0.000000
    3     1.000000   120.000000     0.000000     0.000000    -1.000000     0.000000     0.000000     0.000000
    4    -1.000000   120.000000     0.000000     0.000000    -1.000000     0.000000     0.000000     0.000000
    5     1.000000   120.000000     0.000000     0.000000     1.000000     0.000000     0.000000     0.000000
    6    -1.000000   120.000000     0.000000     0.000000     1.000000     0.000000     0.000000     0.000000
    7     1.000000   180.000000    -0.000000     1.000000     0.000000     0.000000     0.000000     0.000000
    8    -1.000000   180.000000    -0.000000     1.000000     0.000000     0.000000     0.000000     0.000000
    9     1.000000   180.000000     0.866025     0.500000     0.000000     0.000000     0.000000     0.000000
   10    -1.000000   180.000000     0.866025     0.500000     0.000000     0.000000     0.000000     0.000000
   11     1.000000   180.000000     0.866025    -0.500000     0.000000     0.000000     0.000000     0.000000
   12    -1.000000   180.000000     0.866025    -0.500000     0.000000     0.000000     0.000000     0.000000

 Subroutine IBZKPT returns following result:

 Found     37 irreducible k-points:

 Following reciprocal coordinates:
            Coordinates               Weight
  0.000000  0.000000  0.000000      1.000000
  0.166667  0.000000  0.000000      6.000000
  0.333333 -0.000000  0.000000      6.000000
  0.500000 -0.000000  0.000000      3.000000
  0.166667  0.166667  0.000000      6.000000
  0.333333  0.166667  0.000000     12.000000
  0.333333  0.333333  0.000000      2.000000
  0.000000  0.000000  0.142857      2.000000
  0.166667  0.000000  0.142857     12.000000
  0.333333 -0.000000  0.142857     12.000000
  0.500000 -0.000000  0.142857      6.000000
  0.166667  0.166667  0.142857      6.000000
  0.333333  0.166667  0.142857     12.000000
  0.333333  0.333333  0.142857      2.000000
 -0.166667  0.333333  0.142857      6.000000
 -0.333333  0.500000  0.142857     12.000000
 -0.333333 -0.333333  0.142857      2.000000
  0.000000  0.000000  0.285714      2.000000
  0.166667  0.000000  0.285714     12.000000
  0.333333 -0.000000  0.285714     12.000000
  0.500000 -0.000000  0.285714      6.000000
  0.166667  0.166667  0.285714      6.000000
  0.333333  0.166667  0.285714     12.000000
  0.333333  0.333333  0.285714      2.000000
 -0.166667  0.333333  0.285714      6.000000
 -0.333333  0.500000  0.285714     12.000000
 -0.333333 -0.333333  0.285714      2.000000
  0.000000  0.000000  0.428571      2.000000
  0.166667  0.000000  0.428571     12.000000
  0.333333 -0.000000  0.428571     12.000000
  0.500000 -0.000000  0.428571      6.000000
  0.166667  0.166667  0.428571      6.000000
  0.333333  0.166667  0.428571     12.000000
  0.333333  0.333333  0.428571      2.000000
 -0.166667  0.333333  0.428571      6.000000
 -0.333333  0.500000  0.428571     12.000000
 -0.333333 -0.333333  0.428571      2.000000

 Following cartesian coordinates:
            Coordinates               Weight
  0.000000  0.000000  0.000000      1.000000
  0.032310 -0.018654  0.000000      6.000000
  0.064620 -0.037308  0.000000      6.000000
  0.096930 -0.055963  0.000000      3.000000
  0.064620  0.000000  0.000000      6.000000
  0.096930 -0.018654  0.000000     12.000000
  0.129240  0.000000  0.000000      2.000000
  0.000000  0.000000  0.032183      2.000000
  0.032310 -0.018654  0.032183     12.000000
  0.064620 -0.037308  0.032183     12.000000
  0.096930 -0.055963  0.032183      6.000000
  0.064620  0.000000  0.032183      6.000000
  0.096930 -0.018654  0.032183     12.000000
  0.129240  0.000000  0.032183      2.000000
  0.032310  0.055963  0.032183      6.000000
  0.032310  0.093271  0.032183     12.000000
 -0.129240  0.000000  0.032183      2.000000
  0.000000  0.000000  0.064365      2.000000
  0.032310 -0.018654  0.064365     12.000000
  0.064620 -0.037308  0.064365     12.000000
  0.096930 -0.055963  0.064365      6.000000
  0.064620  0.000000  0.064365      6.000000
  0.096930 -0.018654  0.064365     12.000000
  0.129240  0.000000  0.064365      2.000000
  0.032310  0.055963  0.064365      6.000000
  0.032310  0.093271  0.064365     12.000000
 -0.129240  0.000000  0.064365      2.000000
  0.000000  0.000000  0.096548      2.000000
  0.032310 -0.018654  0.096548     12.000000
  0.064620 -0.037308  0.096548     12.000000
  0.096930 -0.055963  0.096548      6.000000
  0.064620  0.000000  0.096548      6.000000
  0.096930 -0.018654  0.096548     12.000000
  0.129240  0.000000  0.096548      2.000000
  0.032310  0.055963  0.096548      6.000000
  0.032310  0.093271  0.096548     12.000000
 -0.129240  0.000000  0.096548      2.000000

 Subroutine IBZKPT_HF returns following result:

 Found    252 k-points in 1st BZ
 the following    252 k-points will be used (e.g. in the exchange kernel)
 Following reciprocal coordinates:   # in IRBZ
  0.000000  0.000000  0.000000    0.00396825   1 t-inv F
  0.166667  0.000000  0.000000    0.00396825   2 t-inv F
  0.333333 -0.000000  0.000000    0.00396825   3 t-inv F
  0.500000 -0.000000  0.000000    0.00396825   4 t-inv F
  0.166667  0.166667  0.000000    0.00396825   5 t-inv F
  0.333333  0.166667  0.000000    0.00396825   6 t-inv F
  0.333333  0.333333  0.000000    0.00396825   7 t-inv F
  0.000000  0.000000  0.142857    0.00396825   8 t-inv F
  0.166667  0.000000  0.142857    0.00396825   9 t-inv F
  0.333333 -0.000000  0.142857    0.00396825  10 t-inv F
  0.500000 -0.000000  0.142857    0.00396825  11 t-inv F
  0.166667  0.166667  0.142857    0.00396825  12 t-inv F
  0.333333  0.166667  0.142857    0.00396825  13 t-inv F
  0.333333  0.333333  0.142857    0.00396825  14 t-inv F
 -0.166667  0.333333  0.142857    0.00396825  15 t-inv F
[...]
      6     -18.2591      1.00000
      7     -17.6574      1.00000
      8      -6.2420      1.00000
      9      -5.6237      1.00000
     10      -5.6237      1.00000
     11      -5.4217      1.00000
     12      -5.4217      1.00000
     13      -5.2668      1.00000
     14      -4.5315      1.00000
     15      -4.5315      1.00000
     16      -3.4294      1.00000
     17      -3.4294      1.00000
     18      -3.2075      1.00000
     19      -1.6477      1.00000
     20      -1.5414      1.00000
     21      -1.5413      1.00000
     22      -1.2947      1.00000
     23      -0.9597      1.00000
     24      -0.4702      1.00000
     25      -0.4702      1.00000
     26      -0.0538      1.00000
     27       0.8947      1.00000
     28       0.8947      1.00000
     29       1.1134      1.00000
     30       1.4015      1.00000
     31       1.4015      1.00000
     32       6.7764      0.00000
     33       6.7764      0.00000
     34       7.7920      0.00000
     35       7.7920      0.00000
     36       9.3690      0.00000
     37      13.0885      0.00000
     38      15.4996      0.00000
     39      16.0307      0.00000
     40      16.0309      0.00000
     41      16.2826      0.00000
     42      16.2831      0.00000

[...]

 soft charge-density along one line, spin component           1
         0         1         2         3         4         5         6         7         8         9
 total charge-density along one line

[...]

------------------------ aborting loop because EDIFF is reached ----------------------------------------

 total charge

# of ion       s       p       d       tot
    1        2.004   0.032   0.000   2.036
    2        0.710   1.020   6.712   8.442
    3        0.710   1.020   6.712   8.442
    4        1.585   3.411   0.000   4.996
    5        1.587   3.387   0.000   4.975
    6        1.586   3.404   0.000   4.990
    7        1.587   3.387   0.000   4.975
    8        1.585   3.411   0.000   4.996
    9        1.586   3.404   0.000   4.990
tot         12.942  22.477  13.424  48.842

 magnetization (x)

[...]

  FORCE on cell =-STRESS in cart. coord.  units (eV):
  Direction    XX          YY          ZZ          XY          YZ          ZX
  Alpha Z   222.90209   222.90209   222.90209
  Ewald    -840.82639  -840.83049 -1385.65553     0.00000     0.00000    -0.00010
  Hartree   423.56030   423.55944   175.03827     0.00000    -0.00000     0.00000
  E(xc)    -208.62274  -208.62271  -208.85486    -0.00000    -0.00000     0.00003
  Local    -552.63110  -552.61981   212.43326    -0.00000     0.00000     0.00011
  n-local  -108.09983  -108.38996  -112.44995    -0.32743    -0.62191    -0.13152
  augment   125.54786   125.54874   129.47265     0.00000    -0.00000     0.00013
  Kinetic  1038.11705  1040.73664  1069.56421     0.57170     0.88954    -0.25291
  Fock     -100.60683  -100.70929  -101.55673    -0.05489    -0.08491    -0.06411
  Total       0.45754     0.45754     0.89340     0.00000     0.00000    -0.00000
  in kB       7.16641     7.16640    13.99341     0.00000     0.00000    -0.00000

 VOLUME and BASIS-vectors are now :
  energy-cutoff  :      500.00
  volume of cell :      102.29
      direct lattice vectors                 reciprocal lattice vectors
     2.579174947 -4.467261427  0.000000000     0.193860444 -0.111925395  0.000000000
     2.579174947  4.467261427  0.000000000     0.193860444  0.111925395  0.000000000
     0.000000000  0.000000000  4.438964233     0.000000000  0.000000000  0.225277778

[...]

 FORCES acting on ions:
    Electron-Ion                     Ewald-Force                    Non-Local-Force
   -.479E-07 0.476E-07 0.179E-06   0.178E-14 -.142E-13 0.178E-13   -.406E-23 -.198E-22 0.769E-23
   0.117E-05 0.483E-03 0.334E-06   0.142E-13 -.133E-02 -.853E-13   0.126E-16 0.121E-17 -.151E-18
   -.349E-05 -.483E-03 -.329E-06   0.000E+00 0.133E-02 0.284E-13   0.156E-16 0.116E-18 -.249E-17
   0.955E+02 0.417E-06 -.150E+03   -.110E+03 0.711E-14 0.172E+03   0.130E+02 -.249E-16 -.196E+02
   -.478E+02 -.827E+02 -.150E+03   0.552E+02 0.956E+02 0.172E+03   -.649E+01 -.112E+02 -.196E+02
   -.478E+02 0.827E+02 -.150E+03   0.552E+02 -.956E+02 0.172E+03   -.649E+01 0.112E+02 -.196E+02
   0.478E+02 0.827E+02 0.150E+03   -.552E+02 -.956E+02 -.172E+03   0.649E+01 0.112E+02 0.196E+02
   -.955E+02 -.213E-05 0.150E+03   0.110E+03 0.269E-11 -.172E+03   -.130E+02 0.374E-17 0.196E+02
   0.478E+02 -.827E+02 0.150E+03   -.552E+02 0.956E+02 -.172E+03   0.649E+01 -.112E+02 0.196E+02
   0.893E-05 -.224E-05 0.409E-06   0.213E-13 0.000E+00 0.284E-13   -.266E-14 0.355E-14 0.000E+00

 POSITION                                       TOTAL-FORCE (eV/Angst)
      0.00000      0.00000      0.00000        -0.000000     -0.000000      0.000000
      2.57917      1.48909      2.21948        -0.000000     -0.000000      0.000000
      2.57917     -1.48909      2.21948        -0.000000     -0.000000      0.000000
      1.83676      0.00000      3.23351        -0.009261     -0.000000     -0.045042
      1.66079      2.87658      3.23351         0.004630      0.008020     -0.045042
      1.66079     -2.87658      3.23351         0.004630     -0.008020     -0.045042
      3.49756     -2.87658      1.20546        -0.004630     -0.008020      0.045042
      3.32159     -0.00000      1.20546         0.009261     -0.000000      0.045042
      3.49756      2.87658      1.20546        -0.004630      0.008020      0.045042
    total drift:                                0.000009     -0.000002      0.000000

  FREE ENERGIE OF THE ION-ELECTRON SYSTEM (eV)
  free  energy   TOTEN  =       -71.06908476 eV

  energy  without entropy=      -71.06908476  energy(sigma->0) =      -71.06908476

[...]

 d Force = 0.1293074E-02[ 0.197E-02, 0.615E-03]  d Energy = 0.2600916E-02-0.131E-02
 d Force =-0.1960506E+01[-0.196E+01,-0.196E+01]  d Ewald  =-0.1267979E+02 0.107E+02

 Steepest descent step on ions:
 trial-energy change:   -0.002601  1 .order   -0.002722   -0.007135    0.001691
  (g-gl).g = 0.713E-02      g.g   = 0.713E-02  gl.gl    = 0.000E+00
 g(Force)  = 0.612E-03   g(Stress)= 0.652E-02 ortho     = 0.000E+00
 gamma     =   0.00000
 trial     =   1.00000
 opt step  =   0.79501  (harmonic =   0.80843) maximal distance =0.00172753
 next E    =   -71.071860   (d E  =  -0.00278)

[...]

 d Force =-0.3736150E-03[-0.346E-03,-0.402E-03]  d Energy = 0.1833104E-03-0.557E-03
 d Force = 0.3998198E+00[ 0.400E+00, 0.400E+00]  d Ewald  = 0.2592545E+01-0.219E+01

[...]

 Conjugate gradient step on ions:
 trial-energy change:   -0.002943  1 .order   -0.002848   -0.002899   -0.002798
  (g-gl).g = 0.957E-02      g.g   = 0.948E-02  gl.gl    = 0.713E-02
 g(Force)  = 0.599E-02   g(Stress)= 0.349E-02 ortho     =-0.955E-04
 gamma     =   1.34200
 trial     =   0.30999
 opt step  =   1.23995  (harmonic =   8.87569) maximal distance =0.01186247
 next E    =   -71.113368   (d E  =  -0.04150)

[...]

 E-fermi :   2.2423     XC(G=0):  -8.6273     alpha+bet :-10.0188

[...]

 d Force = 0.5661116E-02[ 0.399E-02, 0.733E-02]  d Energy = 0.7089895E-02-0.143E-02
 d Force =-0.1030827E+02[-0.104E+02,-0.102E+02]  d Ewald  =-0.2042735E+02 0.101E+02

[...]

 E-fermi :   2.1695     XC(G=0):  -8.5466     alpha+bet : -9.8709

[...]

 d Force = 0.1128808E-03[-0.780E-02, 0.803E-02]  d Energy =-0.1043565E-02 0.116E-02
 d Force =-0.2146799E+02[-0.219E+02,-0.210E+02]  d Ewald  =-0.4171675E+02 0.202E+02

[...]

 d Force = 0.7504177E-03[ 0.163E-03, 0.134E-02]  d Energy = 0.1245741E-02-0.495E-03
 d Force = 0.3914089E+01[ 0.391E+01, 0.392E+01]  d Ewald  = 0.3336819E+01 0.577E+00

 Steepest descent step on ions:
 trial-energy change:   -0.001246  1 .order   -0.001242   -0.001893   -0.000590
  (g-gl).g = 0.399E-02      g.g   = 0.218E-02  gl.gl    = 0.948E-02
 g(Force)  = 0.154E-02   g(Stress)= 0.642E-03 ortho     =-0.230E-02
 gamma     =   0.00000
 trial     =   0.86797
 opt step  =   1.25080  (harmonic =   1.26108) maximal distance =0.00413702
 next E    =   -71.082234   (d E  =  -0.00138)

[...]

 d Force =-0.1304479E-03[-0.333E-03, 0.719E-04]  d Energy =-0.2403429E-04-0.106E-03
 d Force = 0.1721159E+01[ 0.172E+01, 0.172E+01]  d Ewald  = 0.1471629E+01 0.250E+00

[...]

 d Force =-0.1503356E-03[-0.712E-03, 0.411E-03]  d Energy =-0.1572660E-03 0.693E-05
 d Force =-0.1680177E+01[-0.168E+01,-0.168E+01]  d Ewald  = 0.2170379E+01-0.385E+01

 Steepest descent step on ions:
 trial-energy change:    0.000157  1 .order    0.000035   -0.002060    0.002130
  (g-gl).g = 0.414E-02      g.g   = 0.350E-02  gl.gl    = 0.218E-02
 g(Force)  = 0.699E-03   g(Stress)= 0.280E-02 ortho     =-0.641E-03
 gamma     =   0.00000
 trial     =   0.58867
 opt step  =   0.26393  (harmonic =   0.28943) maximal distance =0.00050010
 next E    =   -71.082531   (d E  =  -0.00045)

[...]

 eigenvalue-minimisations  :     0
 total energy-change (2. order) : 0.5035230E-02  (-0.4513580E-02)
 number of electron      57.0000073 magnetization       5.0000019
 augmentation part        9.6462830 magnetization       1.9626032

[...]

--------------------------------------- Iteration     10(  11)  ---------------------------------------

 eigenvalue-minimisations  :     0
 total energy-change (2. order) :-0.4780909E-06  (-0.2432169E-06)
 number of electron      57.0000073 magnetization       5.0000019
 augmentation part        9.6440959 magnetization       1.9618007

 Free energy of the ion-electron system (eV)
  alpha Z        PSCENC =       216.22438117
  Ewald energy   TEWEN  =     -2994.11562307
  -Hartree energ DENC   =     -1073.84376106
  -exchange      EXHF   =       149.87738078
  -V(xc)+E(xc)   XCENC  =       111.67487666
  PAW double counting   =      5420.26489457    -5381.47693819
  entropy T*S    EENTRO =        -0.00000000
  eigenvalues    EBANDS =      -414.63322589
  atomic energy  EATOM  =      3894.94555507
  free energy    TOTEN  =       -71.08256930 eV

  energy without entropy =      -71.08256930  energy(sigma->0) =      -71.08256930
  exchange ACFDT corr.  =         0.00000000  see jH, gK, PRB 81, 115126

  average scaling for gradient   0.8724

 average (electrostatic) potential at core
  the test charge radii are     0.7079  1.2793  0.7215
  (the norm of the test charge is              1.0000)
       1 -54.6311       2 -52.6530       3 -52.6530       4 -66.6138       5 -66.6139
       6 -66.6139       7 -66.6139       8 -66.6138       9 -66.6139

 E-fermi :   2.1988     XC(G=0):  -8.5580     alpha+bet : -9.8924

[...]

 spin component 2

[...]

 k-point    37 :      -0.3333   -0.3333    0.4286
  band No.  band energies     occupation
      1     -44.8489      1.00000
      2     -18.3026      1.00000
      3     -18.3025      1.00000
      4     -18.1258      1.00000
      5     -17.4694      1.00000
      6     -17.4693      1.00000
      7     -17.3537      1.00000
      8      -5.6122      1.00000
      9      -5.5754      1.00000
     10      -4.9483      1.00000
     11      -4.9482      1.00000
     12      -4.7678      1.00000
     13      -4.7678      1.00000
     14      -3.1427      1.00000
     15      -3.1427      1.00000
     16      -3.0759      1.00000
     17      -1.4142      1.00000
     18      -1.4046      1.00000
     19      -1.4046      1.00000
     20      -1.0738      1.00000
     21      -0.8401      1.00000
     22      -0.8400      1.00000
     23       0.0658      1.00000
     24       0.0659      1.00000
     25       1.3363      1.00000
     26       1.4969      1.00000
     27       3.4851      0.00000
     28       3.4851      0.00000
     29       3.7937      0.00000
     30       4.1386      0.00000
     31       4.1386      0.00000
     32       7.0773      0.00000
     33       7.6494      0.00000
     34       7.6494      0.00000
     35       8.5325      0.00000
     36      13.4990      0.00000
     37      13.4991      0.00000
     38      13.9628      0.00000
     39      14.4343      0.00000
     40      14.6282      0.00000
     41      14.6283      0.00000
     42      16.3299      0.00000

[...]

 soft charge-density along one line, spin component           2
         0         1         2         3         4         5         6         7         8         9
 total charge-density along one line

------------------------ aborting loop because EDIFF is reached ----------------------------------------

[...]

  FORCE on cell =-STRESS in cart. coord.  units (eV):
  Direction    XX          YY          ZZ          XY          YZ          ZX
  Alpha Z   216.22438   216.22438   216.22438
  Ewald    -781.56340  -781.56755 -1430.98936    -0.00000    -0.00000    -0.00010
  Hartree   467.32053   467.31966   139.20343    -0.00000     0.00000     0.00000
  E(xc)    -208.49663  -208.49663  -208.75907     0.00000     0.00000     0.00001
  Local    -649.05277  -649.04120   299.99012     0.00000    -0.00000     0.00011
  n-local  -107.46263  -107.74221  -111.90879    -0.32303    -0.61113    -0.15233
  augment   125.67608   125.67718   129.66006    -0.00000     0.00000     0.00026
  Kinetic  1036.86202  1039.31338  1068.15846     0.57848     0.86650    -0.15522
  Fock     -100.55253  -100.65602  -101.59436    -0.05614    -0.08303    -0.05969
  Total      -0.00697    -0.00697    -0.01513    -0.00000     0.00000     0.00000
  in kB      -0.10596    -0.10596    -0.22986    -0.00000     0.00000     0.00000

 VOLUME and BASIS-vectors are now :
  energy-cutoff  :      500.00
  volume of cell :      105.45
      direct lattice vectors                 reciprocal lattice vectors
     2.582404402 -4.472855004  0.000000000     0.193618009 -0.111785426 -0.000000000
     2.582404402  4.472855004 -0.000000000     0.193618009  0.111785426 -0.000000000
     0.000000000 -0.000000000  4.564615670     0.000000000  0.000000000  0.219076495

  length of vectors
     5.164808262  5.164808262  4.564615670     0.223570828  0.223570828  0.219076495

 FORCES acting on ions:
    Electron-Ion                     Ewald-Force                    Non-Local-Force
   -.276E-07 -.207E-07 0.110E-05   0.178E-14 0.355E-14 0.142E-13   0.149E-22 -.142E-23 -.610E-21
   -.438E-06 0.477E-03 0.201E-05   0.284E-13 -.132E-02 0.711E-13   0.573E-18 0.293E-16 0.649E-18
   0.443E-06 -.477E-03 -.203E-05   -.284E-13 0.132E-02 -.426E-13   0.866E-17 -.273E-16 0.231E-17
   0.960E+02 0.708E-06 -.164E+03   -.111E+03 -.178E-13 0.187E+03   0.130E+02 -.379E-16 -.195E+02
   -.480E+02 -.832E+02 -.164E+03   0.555E+02 0.961E+02 0.187E+03   -.651E+01 -.113E+02 -.195E+02
   -.480E+02 0.832E+02 -.164E+03   0.555E+02 -.961E+02 0.187E+03   -.651E+01 0.113E+02 -.195E+02
   0.480E+02 0.832E+02 0.164E+03   -.555E+02 -.961E+02 -.187E+03   0.651E+01 0.113E+02 0.195E+02
   -.960E+02 -.877E-06 0.164E+03   0.111E+03 0.160E-13 -.187E+03   -.130E+02 0.395E-16 0.195E+02
   0.480E+02 -.832E+02 0.164E+03   -.555E+02 0.961E+02 -.187E+03   0.651E+01 -.113E+02 0.195E+02
   -.309E-07 -.620E-07 0.104E-05   0.000E+00 0.426E-13 -.284E-13   -.888E-15 0.000E+00 -.355E-14

 POSITION                                       TOTAL-FORCE (eV/Angst)
      0.00000     -0.00000      0.00000        -0.000000      0.000000      0.000000
      2.58240      1.49095      2.28231        -0.000000      0.000000     -0.000000
      2.58240     -1.49095      2.28231        -0.000000     -0.000000      0.000000
      1.84197      0.00000      3.29683        -0.006920     -0.000000      0.026014
      1.66142      2.87766      3.29683         0.003460      0.005993      0.026014
      1.66142     -2.87766      3.29683         0.003460     -0.005993      0.026014
      3.50339     -2.87766      1.26778        -0.003460     -0.005993     -0.026014
      3.32284     -0.00000      1.26778         0.006920     -0.000000     -0.026014
      3.50339      2.87766      1.26778        -0.003460      0.005993     -0.026014
    total drift:                               -0.000000     -0.000000      0.000001

  FREE ENERGIE OF THE ION-ELECTRON SYSTEM (eV)
  free  energy   TOTEN  =       -71.08256930 eV

  energy  without entropy=      -71.08256930  energy(sigma->0) =      -71.08256930

 d Force = 0.2456082E-03[ 0.978E-04, 0.393E-03]  d Energy = 0.6466026E-03-0.401E-03
 d Force = 0.9298050E+00[ 0.928E+00, 0.931E+00]  d Ewald  =-0.1196221E+01 0.213E+01

 reached required accuracy - stopping structural energy minimisation

 total charge

[...]

 magnetization (x)

# of ion       s       p       d       tot
    1        0.001   0.000   0.000   0.001
    2        0.010   0.002   1.153   1.165
    3        0.010   0.002   1.153   1.165
    4        0.008   0.359   0.000   0.367
    5        0.008   0.375   0.000   0.383
    6        0.008   0.356   0.000   0.364
    7        0.008   0.375   0.000   0.383
    8        0.008   0.359   0.000   0.367
    9        0.008   0.356   0.000   0.364
tot          0.068   2.186   2.305   4.560