 vasp.5.4.4.18Apr17-6-g9f103f2a35 (build Dec 07 2017 12:23:07) complex

 executed on     UA-Leibniz-2016b date 2018.07.02  00:41:51

 INCAR:
 POTCAR:    PAW_PBE Li_sv 10Sep2004
 POTCAR:    PAW_PBE Mn_pv 02Aug2007
 POTCAR:    PAW_PBE O 08Apr2002

 POTCAR:    PAW_PBE Li_sv 10Sep2004
   VRHFIN =Li: 1s2s2p

   TITEL  = PAW_PBE Li_sv 10Sep2004
   POMASS =    7.010; ZVAL   =    3.000    mass and valenz
   ENMAX  =  499.034; ENMIN  =  374.276 eV

 POTCAR:    PAW_PBE Mn_pv 02Aug2007
   VRHFIN =Mn: 3p4s3d

   TITEL  = PAW_PBE Mn_pv 02Aug2007
   POMASS =   54.938; ZVAL   =   13.000    mass and valenz
   ENMAX  =  269.864; ENMIN  =  202.398 eV

 POTCAR:    PAW_PBE O 08Apr2002
   VRHFIN =O: s2p4

   TITEL  = PAW_PBE O 08Apr2002
   POMASS =   16.000; ZVAL   =    6.000    mass and valenz
   ENMAX  =  400.000; ENMIN  =  300.000 eV

 Optimization of the real space projectors (new method)

 maximal supplied QI-value         = 22.11
 optimisation between [QCUT,QGAM] = [ 11.28, 22.77] = [ 35.61,145.23] Ry
 Optimized for a Real-space Cutoff    1.07 Angstroem

   l    n(q)    QCUT    max X(q) W(low)/X(q) W(high)/X(q)  e(spline)
   0      7    11.276    10.506    0.35E-04    0.79E-04    0.14E-07
   0      7    11.276     8.367    0.77E-04    0.18E-03    0.29E-07
   1      7    11.276     8.983    0.48E-03    0.57E-03    0.79E-07
 Optimization of the real space projectors (new method)

[...]

   l    n(q)    QCUT    max X(q) W(low)/X(q) W(high)/X(q)  e(spline)
   1      9    11.376     3.658    0.21E-03    0.20E-03    0.75E-07
   1      9    11.376     5.612    0.42E-03    0.37E-03    0.14E-06
   2      8    11.376    55.373    0.42E-03    0.47E-03    0.17E-06
   2      8    11.376    50.863    0.43E-03    0.48E-03    0.17E-06
   0      9    11.376    79.536    0.15E-03    0.13E-03    0.43E-07
   0      9    11.376    38.668    0.14E-03    0.12E-03    0.40E-07
 Optimization of the real space projectors (new method)

 maximal supplied QI-value         = 24.76
 optimisation between [QCUT,QGAM] = [ 11.39, 22.77] = [ 36.31,145.25] Ry
 Optimized for a Real-space Cutoff    1.00 Angstroem

   l    n(q)    QCUT    max X(q) W(low)/X(q) W(high)/X(q)  e(spline)
   0      7    11.387    20.381    0.39E-03    0.13E-02    0.15E-06
   0      7    11.387    15.268    0.42E-03    0.14E-02    0.17E-06
   1      6    11.387     5.964    0.41E-03    0.11E-02    0.17E-06
   1      6    11.387     5.382    0.39E-03    0.87E-03    0.15E-06
  PAW_PBE Li_sv 10Sep2004               :
  PAW_PBE Mn_pv 02Aug2007               :
  PAW_PBE O 08Apr2002                   :

 POSCAR: Li1 Mn2 O6
  positions in direct lattice
  velocities in cartesian coordinates
 exchange correlation table for  LEXCH =        8
   RHO(1)=    0.500       N(1)  =     2000
   RHO(2)=  100.500       N(2)  =     4000

 ion  position               nearest neighbor table
   1  0.000  0.000  0.000-   5 2.03   7 2.03   6 2.03   9 2.03   8 2.03   4 2.03
   2  0.333  0.667  0.500-   9 1.87   4 1.87   5 1.87   8 1.87   7 1.87   6 1.87   3 2.85   3 2.85
                             3 2.85
   3  0.667  0.333  0.500-   6 1.87   8 1.87   7 1.87   4 1.87   5 1.87   9 1.87   2 2.85   2 2.85
                             2 2.85
   4  0.640  0.640  0.246-   2 1.87   3 1.87   1 2.03
   5  0.360  1.000  0.246-   2 1.87   3 1.87   1 2.03
   6  1.000  0.360  0.246-   3 1.87   2 1.87   1 2.03
   7  0.640  0.000  0.754-   3 1.87   2 1.87   1 2.03
   8  0.360  0.360  0.754-   3 1.87   2 1.87   1 2.03
   9  0.000  0.640  0.754-   2 1.87   3 1.87   1 2.03

  LATTYP: Found a simple monoclinic cell.
 ALAT       =     4.9329848589
 B/A-ratio  =     0.7998428277
 C/A-ratio  =     1.7320881446
 COS(beta)  =    -0.8660308311

  Lattice vectors:

 A1 = (   2.4663930860,  -4.2721474020,   0.0011571172)
 A2 = (   0.0006351022,  -0.0006461673,  -3.9456124545)
 A3 = (   0.0001058485,   8.5443644845,  -0.0013481339)

Analysis of symmetry for initial positions (statically):
 Subroutine PRICEL returns:
 Original cell was already a primitive cell.

 Routine SETGRP: Setting up the symmetry group for a
 simple monoclinic supercell.

 Subroutine GETGRP returns: Found  2 space group operations
 (whereof  2 operations were pure point group operations)
 out of a pool of  4 trial point group operations.

The static configuration has the point symmetry S_2 .

Analysis of symmetry for dynamics (positions and initial velocities):
 Subroutine PRICEL returns:
 Original cell was already a primitive cell.

[...]

The dynamic configuration has the point symmetry S_2 .

Analysis of structural, dynamic, and magnetic symmetry:
 Subroutine PRICEL returns:
 Original cell was already a primitive cell.

 Routine SETGRP: Setting up the symmetry group for a
 simple monoclinic supercell.

 Subroutine GETGRP returns: Found  2 space group operations
 (whereof  2 operations were pure point group operations)
 out of a pool of  4 trial point group operations.

The magnetic configuration has the point symmetry S_2 .

 Subroutine INISYM returns: Found  2 space group operations
 (whereof  2 operations are pure point group operations),
 and found     1 'primitive' translations

 KPOINTS: pymatgen 4.7.6+ generated KPOINTS with g

Automatic generation of k-mesh.
Space group operators:
 irot       det(A)        alpha          n_x          n_y          n_z        tau_x        tau_y        tau_z
    1     1.000000     0.000000     1.000000     0.000000     0.000000     0.000000     0.000000     0.000000
    2    -1.000000     0.000000     1.000000     0.000000     0.000000     0.000000     0.000000     0.000000

 Subroutine IBZKPT returns following result:

 Found    172 irreducible k-points:

 Following reciprocal coordinates:
            Coordinates               Weight
  0.000000  0.000000  0.000000      1.000000
  0.142857 -0.000000 -0.000000      2.000000
  0.285714 -0.000000 -0.000000      2.000000
  0.428571 -0.000000  0.000000      2.000000
  0.000000  0.142857  0.000000      2.000000
  0.142857  0.142857 -0.000000      2.000000
  0.285714  0.142857 -0.000000      2.000000
  0.428571  0.142857 -0.000000      2.000000
 -0.428571  0.142857 -0.000000      2.000000
 -0.285714  0.142857  0.000000      2.000000
 -0.142857  0.142857  0.000000      2.000000
  0.000000  0.285714  0.000000      2.000000
  0.142857  0.285714 -0.000000      2.000000
  0.285714  0.285714  0.000000      2.000000
  0.428571  0.285714 -0.000000      2.000000
 -0.428571  0.285714  0.000000      2.000000
 -0.285714  0.285714  0.000000      2.000000
 -0.142857  0.285714 -0.000000      2.000000
  0.000000  0.428571 -0.000000      2.000000
  0.142857  0.428571 -0.000000      2.000000
  0.285714  0.428571 -0.000000      2.000000
  0.428571  0.428571 -0.000000      2.000000
 -0.428571  0.428571  0.000000      2.000000
 -0.285714  0.428571 -0.000000      2.000000
 -0.142857  0.428571 -0.000000      2.000000
 -0.000000  0.000000  0.142857      2.000000
  0.142857  0.000000  0.142857      2.000000
  0.285714 -0.000000  0.142857      2.000000
  0.428571  0.000000  0.142857      2.000000
 -0.428571 -0.000000  0.142857      2.000000
 -0.285714 -0.000000  0.142857      2.000000
 -0.142857  0.000000  0.142857      2.000000
 -0.000000  0.142857  0.142857      2.000000
  0.142857  0.142857  0.142857      2.000000
  0.285714  0.142857  0.142857      2.000000
  0.428571  0.142857  0.142857      2.000000
 -0.428571  0.142857  0.142857      2.000000
 -0.285714  0.142857  0.142857      2.000000
 -0.142857  0.142857  0.142857      2.000000
 -0.000000  0.285714  0.142857      2.000000
  0.142857  0.285714  0.142857      2.000000
  0.285714  0.285714  0.142857      2.000000
  0.428571  0.285714  0.142857      2.000000
 -0.428571  0.285714  0.142857      2.000000
 -0.285714  0.285714  0.142857      2.000000
 -0.142857  0.285714  0.142857      2.000000
 -0.000000  0.428571  0.142857      2.000000
  0.142857  0.428571  0.142857      2.000000
  0.285714  0.428571  0.142857      2.000000
  0.428571  0.428571  0.142857      2.000000
 -0.428571  0.428571  0.142857      2.000000
 -0.285714  0.428571  0.142857      2.000000
 -0.142857  0.428571  0.142857      2.000000
 -0.000000 -0.428571  0.142857      2.000000
  0.142857 -0.428571  0.142857      2.000000
  0.285714 -0.428571  0.142857      2.000000
  0.428571 -0.428571  0.142857      2.000000
 -0.428571 -0.428571  0.142857      2.000000
 -0.285714 -0.428571  0.142857      2.000000
 -0.142857 -0.428571  0.142857      2.000000
[...]
 -0.142857 -0.428571  0.428571      2.000000
 -0.000000 -0.285714  0.428571      2.000000
  0.142857 -0.285714  0.428571      2.000000
  0.285714 -0.285714  0.428571      2.000000
  0.428571 -0.285714  0.428571      2.000000
 -0.428571 -0.285714  0.428571      2.000000
 -0.285714 -0.285714  0.428571      2.000000
 -0.142857 -0.285714  0.428571      2.000000
  0.000000 -0.142857  0.428571      2.000000
  0.142857 -0.142857  0.428571      2.000000
  0.285714 -0.142857  0.428571      2.000000
  0.428571 -0.142857  0.428571      2.000000
 -0.428571 -0.142857  0.428571      2.000000
 -0.285714 -0.142857  0.428571      2.000000
 -0.142857 -0.142857  0.428571      2.000000

 Following cartesian coordinates:
            Coordinates               Weight
  0.000000  0.000000  0.000000      1.000000
  0.028960  0.016719  0.000002      2.000000
  0.057920  0.033438  0.000004      2.000000
  0.086880  0.050157  0.000006      2.000000
 -0.000000  0.033439 -0.000005      2.000000
  0.028959  0.050158 -0.000004      2.000000
  0.057919  0.066877 -0.000002      2.000000
  0.086879  0.083596  0.000000      2.000000
 -0.086880 -0.016718 -0.000011      2.000000
 -0.057920  0.000001 -0.000009      2.000000
 -0.028960  0.016720 -0.000007      2.000000
 -0.000001  0.066878 -0.000011      2.000000
  0.028959  0.083597 -0.000009      2.000000
  0.057919  0.100316 -0.000007      2.000000
  0.086879  0.117035 -0.000005      2.000000
 -0.086881  0.016721 -0.000017      2.000000
 -0.057921  0.033440 -0.000015      2.000000
 -0.028961  0.050159 -0.000013      2.000000
 -0.000001  0.100317 -0.000016      2.000000
  0.028958  0.117036 -0.000015      2.000000
  0.057918  0.133755 -0.000013      2.000000
  0.086878  0.150474 -0.000011      2.000000
 -0.086881  0.050159 -0.000022      2.000000
 -0.057921  0.066879 -0.000020      2.000000
 -0.028961  0.083598 -0.000018      2.000000
 -0.000007  0.000006  0.036207      2.000000
  0.028953  0.016725  0.036209      2.000000
  0.057913  0.033444  0.036210      2.000000
  0.086873  0.050163  0.036212      2.000000
 -0.086887 -0.050152  0.036201      2.000000
 -0.057927 -0.033432  0.036203      2.000000
 -0.028967 -0.016713  0.036205      2.000000
 -0.000008  0.033445  0.036201      2.000000
  0.028952  0.050164  0.036203      2.000000
  0.057912  0.066883  0.036205      2.000000
  0.086872  0.083602  0.036207      2.000000
 -0.086887 -0.016713  0.036195      2.000000
 -0.057927  0.000006  0.036197      2.000000
 -0.028967  0.016726  0.036199      2.000000
 -0.000008  0.066884  0.036196      2.000000
  0.028952  0.083603  0.036198      2.000000
  0.057912  0.100322  0.036199      2.000000
  0.086872  0.117041  0.036201      2.000000
 -0.086888  0.016726  0.036190      2.000000
[...]

 average (electrostatic) potential at core
  the test charge radii are     0.7079  0.9577  0.7215
  (the norm of the test charge is              1.0000)
       1 -52.2733       2 -66.3385       3 -66.3385       4 -65.4150       5 -65.4150
       6 -65.4151       7 -65.4150       8 -65.4150       9 -65.4151

 E-fermi :   2.5706     XC(G=0):  -9.3041     alpha+bet :-12.1585

 spin component 1

 k-point     1 :       0.0000    0.0000    0.0000
  band No.  band energies     occupation
      1     -52.2503      1.00000
      2     -52.2502      1.00000
      3     -52.1901      1.00000
      4     -52.1714      1.00000
      5     -52.1714      1.00000
      6     -52.1680      1.00000
      7     -42.5306      1.00000
      8     -18.1004      1.00000
      9     -16.1079      1.00000
     10     -16.1078      1.00000
     11     -15.7468      1.00000
     12     -15.7465      1.00000
     13     -15.1315      1.00000
     14      -4.5682      1.00000
     15      -3.7526      1.00000
     16      -3.7525      1.00000
     17      -3.7364      1.00000
     18      -3.4437      1.00000
     19      -3.4435      1.00000
     20      -3.0109      1.00000
     21      -3.0103      1.00000
     22      -1.8286      1.00000
     23      -1.8281      1.00000
     24      -1.2435      1.00000
     25      -1.1890      1.00000
     26       0.1485      1.00000
     27       0.7645      1.00000
     28       0.7645      1.00000
     29       1.3853      1.00000
     30       1.3880      1.00000
     31       1.6236      1.00000
     32       1.6239      1.00000
     33       1.9462      0.99984
     34       1.9462      0.99984
     35       3.7772      0.00000
     36       3.7774      0.00000
     37       5.0480      0.00000
     38       5.9287      0.00000
     39       5.9299      0.00000
     40       6.6586      0.00000
     41       6.6599      0.00000
     42      13.0041      0.00000
     43      15.3051      0.00000
     44      18.2601      0.00000
     45      19.1292      0.00000
     46      19.1294      0.00000
     47      19.2343      0.00000
     48      19.4838      0.00000
     49      19.4842      0.00000
     50      21.5567      0.00000
     51      21.9512      0.00000
     52      22.0734      0.00000
     53      22.2078      0.00000
     54      22.2098      0.00000
     55      24.6757      0.00000
     56      25.4913      0.00000

[...]

 soft charge-density along one line, spin component           1
         0         1         2         3         4         5         6         7         8         9
 total charge-density along one line

[...]

------------------------ aborting loop because EDIFF is reached ----------------------------------------

 total charge

# of ion       s       p       d       tot
    1        2.017   0.057   0.000   2.075
    2        0.403   6.549   4.815  11.767
    3        0.403   6.549   4.815  11.767
    4        1.597   3.365   0.000   4.962
    5        1.597   3.365   0.000   4.962
    6        1.597   3.365   0.000   4.962
    7        1.597   3.365   0.000   4.962
    8        1.597   3.365   0.000   4.962
    9        1.597   3.365   0.000   4.962
tot         12.405  33.344   9.630  55.379

 magnetization (x)

[...]

  FORCE on cell =-STRESS in cart. coord.  units (eV):
  Direction    XX          YY          ZZ          XY          YZ          ZX
  Alpha Z   259.64321   259.64321   259.64321
  Ewald   -1384.49868 -1384.69618 -1816.72268    -0.03560    -0.14986    -0.05201
  Hartree   731.21288   731.12882   503.30005    -0.01063    -0.07362    -0.01746
  E(xc)    -261.94189  -261.94213  -262.20290    -0.00008    -0.00020    -0.00014
  Local    -409.13976  -408.86320   256.43506     0.04472     0.22386     0.06762
  n-local   -32.46945   -32.47256   -29.91778    -0.00055    -0.00142    -0.00332
  augment   236.78115   236.78208   234.85246     0.00058    -0.00065    -0.00009
  Kinetic  1102.07766  1102.07738  1094.36084     0.00025    -0.00165    -0.00072
  Fock     -241.56886  -241.57074  -240.37821    -0.00177     0.00039     0.00022
  Total       0.09628     0.08668    -0.62994    -0.00307    -0.00316    -0.00590
  in kB       1.85508     1.67022   -12.13782    -0.05915    -0.06086    -0.11373

 VOLUME and BASIS-vectors are now :
  energy-cutoff  :      500.00
  volume of cell :       83.15
      direct lattice vectors                 reciprocal lattice vectors
     4.932892020  0.000069680  0.000966101     0.202719181  0.117033697  0.000013464
    -2.466393086  4.272147402 -0.001157117    -0.000003299  0.234072406 -0.000038334
    -0.000635102  0.000646167  3.945612454    -0.000049638  0.000039989  0.253446063

[...]

 FORCES acting on ions:
    Electron-Ion                     Ewald-Force                    Non-Local-Force
   -.477E-07 0.253E-08 0.244E-10   -.355E-13 0.711E-14 -.711E-14   -.803E-21 0.563E-21 -.214E-20
   -.983E-02 -.107E-01 0.163E-02   0.955E-02 0.116E-01 -.155E-02   0.686E-03 -.814E-03 -.227E-03
   0.983E-02 0.107E-01 -.163E-02   -.955E-02 -.116E-01 0.155E-02   -.686E-03 0.814E-03 0.227E-03
   -.811E+02 -.140E+03 0.189E+03   0.879E+02 0.152E+03 -.205E+03   -.601E+01 -.104E+02 0.140E+02
   0.162E+03 0.279E-02 0.189E+03   -.176E+03 -.272E-02 -.205E+03   0.120E+02 0.472E-03 0.140E+02
   -.811E+02 0.140E+03 0.189E+03   0.880E+02 -.152E+03 -.205E+03   -.602E+01 0.104E+02 0.140E+02
   -.162E+03 -.279E-02 -.189E+03   0.176E+03 0.272E-02 0.205E+03   -.120E+02 -.472E-03 -.140E+02
   0.811E+02 0.140E+03 -.189E+03   -.879E+02 -.152E+03 0.205E+03   0.601E+01 0.104E+02 -.140E+02
   0.811E+02 -.140E+03 -.189E+03   -.880E+02 0.152E+03 0.205E+03   0.602E+01 -.104E+02 -.140E+02
   -.632E-07 0.391E-07 -.148E-08   -.568E-13 0.284E-13 -.853E-13   0.000E+00 -.355E-14 -.355E-14

 POSITION                                       TOTAL-FORCE (eV/Angst)
      0.00000      0.00000      0.00000         0.000000     -0.000000      0.000000
     -0.00029      2.84845      1.97237         0.000280      0.000088     -0.000123
      2.46616      1.42441      1.97306        -0.000280     -0.000088      0.000123
      1.57750      2.73287      0.97242        -0.076000     -0.132961     -0.022397
     -0.68902      4.27228      0.97175         0.153539      0.000752     -0.021389
      4.04391      1.53965      0.97312        -0.075258      0.133257     -0.022137
      3.15488      0.00059      2.97368        -0.153539     -0.000752      0.021389
      0.88836      1.53999      2.97300         0.076000      0.132961      0.022397
     -1.57804      2.73322      2.97231         0.075258     -0.133257      0.022137
    total drift:                               -0.000000      0.000000     -0.000000

  FREE ENERGIE OF THE ION-ELECTRON SYSTEM (eV)
  free  energy   TOTEN  =       -79.79481811 eV

  energy  without entropy=      -79.79644635  energy(sigma->0) =      -79.79522517

 Quasi-Newton relaxation of ions (Broydens 2nd method)
  g(Force)  = 0.694E-02   g(Stress)= 0.222E-02

 Reset! Starting new Quasi-Newton update for ions

 writing wavefunctions

[...]

 d Force = 0.5293152E-02[ 0.365E-02, 0.694E-02]  d Energy = 0.6936282E-02-0.164E-02
 d Force =-0.6539518E+01[-0.658E+01,-0.650E+01]  d Ewald  =-0.1774129E+01-0.477E+01

[...]

 retain information from N=  1 steps
 eigenvalues of (default step * inverse Hessian matrix)
  average eigenvalue of G=   0.4686
 eigenvalue spectrum of G is  0.4686

[...]

 eigenvalue-minimisations  :     0
 total energy-change (2. order) :-0.2164971E-05  ( 0.2802807E-08)
 number of electron      64.9999935 magnetization       2.9999969
 augmentation part       18.8028132 magnetization       3.5843066

[...]

 d Force = 0.2417125E-02[ 0.233E-02, 0.251E-02]  d Energy = 0.3777507E-02-0.136E-02
 d Force = 0.1130548E+01[ 0.111E+01, 0.115E+01]  d Ewald  =-0.1642043E+01 0.277E+01

[...]

 d Force = 0.6437678E-02[ 0.247E-02, 0.104E-01]  d Energy = 0.8634393E-02-0.220E-02
 d Force =-0.2182084E+01[-0.237E+01,-0.200E+01]  d Ewald  = 0.1393865E+01-0.358E+01

[...]

 writing wavefunctions

[...]

 eigenvalue-minimisations  :     0
 total energy-change (2. order) : 0.1088665E+00  (-0.9356366E-01)
 number of electron      64.9999920 magnetization       2.9999969
 augmentation part       18.7875696 magnetization       3.5836197

[...]

--------------------------------------- Iteration      5(  13)  ---------------------------------------

 eigenvalue-minimisations  :     0
 total energy-change (2. order) :-0.8399466E-06  (-0.4510006E-06)
 number of electron      64.9999920 magnetization       2.9999981
 augmentation part       18.8073689 magnetization       3.5871194

 Free energy of the ion-electron system (eV)
  alpha Z        PSCENC =       260.25247136
  Ewald energy   TEWEN  =     -4587.12538589
  -Hartree energ DENC   =     -1968.97183173
  -exchange      EXHF   =       197.85904580
  -V(xc)+E(xc)   XCENC  =       243.11078485
  PAW double counting   =      7480.62297752    -7592.45246477
  entropy T*S    EENTRO =         0.00232825
  eigenvalues    EBANDS =      -930.88337541
  atomic energy  EATOM  =      6817.77059976
  free energy    TOTEN  =       -79.81486922 eV

  energy without entropy =      -79.81719747  energy(sigma->0) =      -79.81545128
  exchange ACFDT corr.  =         0.00159528  see jH, gK, PRB 81, 115126

  average scaling for gradient   0.8960

 average (electrostatic) potential at core
  the test charge radii are     0.7079  0.9577  0.7215
  (the norm of the test charge is              1.0000)
       1 -52.3365       2 -66.2609       3 -66.2609       4 -65.3487       5 -65.3488
       6 -65.3489       7 -65.3488       8 -65.3487       9 -65.3489

 E-fermi :   2.4984     XC(G=0):  -9.3093     alpha+bet :-12.1870

[...]

 spin component 2

[...]

 k-point   172 :      -0.1429   -0.1429    0.4286
  band No.  band energies     occupation
      1     -47.7010      1.00000
      2     -47.6848      1.00000
      3     -47.6255      1.00000
      4     -47.6019      1.00000
      5     -47.6016      1.00000
      6     -47.5851      1.00000
      7     -42.5772      1.00000
      8     -18.0099      1.00000
      9     -17.3548      1.00000
     10     -17.2026      1.00000
     11     -17.1587      1.00000
     12     -16.9726      1.00000
     13     -16.7908      1.00000
     14      -3.7648      1.00000
     15      -3.6429      1.00000
     16      -3.3583      1.00000
     17      -3.2294      1.00000
     18      -2.7282      1.00000
     19      -2.2686      1.00000
     20      -1.9082      1.00000
     21      -1.7924      1.00000
     22      -1.7720      1.00000
     23      -1.2233      1.00000
     24      -0.6916      1.00000
     25      -0.3190      1.00000
     26      -0.1938      1.00000
     27       0.1501      1.00000
     28       0.5774      1.00000
     29       0.6820      1.00000
     30       0.9822      1.00000
     31       0.9856      1.00000
     32       6.3190      0.00000
     33       6.4356      0.00000
     34       6.5415      0.00000
     35       6.7691      0.00000
     36       6.8122      0.00000
     37       6.9489      0.00000
     38       8.1854      0.00000
     39       8.2710      0.00000
     40       8.5475      0.00000
     41       8.8331      0.00000
     42      14.1328      0.00000
     43      16.4589      0.00000
     44      17.9664      0.00000
     45      18.1336      0.00000
     46      19.1966      0.00000
     47      19.3308      0.00000
     48      19.3464      0.00000
     49      19.8732      0.00000
     50      20.5304      0.00000
     51      21.3742      0.00000
     52      22.5875      0.00000
     53      23.0844      0.00000
     54      23.2520      0.00000
     55      24.2874      0.00000
     56      24.3179      0.00000

[...]

 soft charge-density along one line, spin component           2
         0         1         2         3         4         5         6         7         8         9
 total charge-density along one line

------------------------ aborting loop because EDIFF is reached ----------------------------------------

[...]

  FORCE on cell =-STRESS in cart. coord.  units (eV):
  Direction    XX          YY          ZZ          XY          YZ          ZX
  Alpha Z   260.25247   260.25247   260.25247
  Ewald   -1427.13819 -1427.18568 -1732.80848     0.00347    -0.00293     0.09867
  Hartree   701.39704   701.36177   566.21254     0.00184     0.00248     0.04702
  E(xc)    -262.00051  -262.00053  -262.21178    -0.00001    -0.00004     0.00007
  Local    -337.81723  -337.73701   110.22963    -0.00682     0.00208    -0.14699
  n-local   -32.30615   -32.30586   -29.56409     0.00087     0.00390    -0.00091
  augment   237.01030   237.01159   234.57386     0.00092    -0.00064     0.00040
  Kinetic  1102.29864  1102.30220  1093.60093     0.00296    -0.00081     0.00249
  Fock     -241.77437  -241.77701  -240.35571    -0.00233     0.00005    -0.00023
  Total      -0.07800    -0.07806    -0.07063     0.00089     0.00411     0.00051
  in kB      -1.50640    -1.50758    -1.36413     0.01717     0.07931     0.00980

 VOLUME and BASIS-vectors are now :
  energy-cutoff  :      500.00
  volume of cell :       82.96
      direct lattice vectors                 reciprocal lattice vectors
     4.955804679 -0.000028589  0.000841450     0.201784247  0.116502071  0.000020170
    -2.477934523  4.291839350 -0.001152485     0.000001350  0.233001104 -0.000035152
    -0.000729593  0.000588427  3.900243543    -0.000043533  0.000043715  0.256394231

  length of vectors
     4.955804750  4.955809302  3.900243655     0.233001320  0.233001106  0.256394238

 FORCES acting on ions:
    Electron-Ion                     Ewald-Force                    Non-Local-Force
   -.514E-06 0.370E-06 -.110E-09   -.355E-14 0.178E-13 0.249E-13   0.159E-20 0.990E-21 0.127E-23
   -.176E-01 -.943E-02 -.350E-03   0.181E-01 0.985E-02 0.338E-03   0.293E-04 0.179E-03 0.154E-04
   0.176E-01 0.943E-02 0.350E-03   -.181E-01 -.985E-02 -.338E-03   -.293E-04 -.179E-03 -.154E-04
   -.826E+02 -.143E+03 0.180E+03   0.894E+02 0.155E+03 -.196E+03   -.589E+01 -.102E+02 0.139E+02
   0.165E+03 0.317E-01 0.180E+03   -.179E+03 -.345E-01 -.196E+03   0.118E+02 0.414E-02 0.139E+02
   -.826E+02 0.143E+03 0.180E+03   0.894E+02 -.155E+03 -.196E+03   -.589E+01 0.102E+02 0.139E+02
   -.165E+03 -.317E-01 -.180E+03   0.179E+03 0.345E-01 0.196E+03   -.118E+02 -.414E-02 -.139E+02
   0.826E+02 0.143E+03 -.180E+03   -.894E+02 -.155E+03 0.196E+03   0.589E+01 0.102E+02 -.139E+02
   0.826E+02 -.143E+03 -.180E+03   -.894E+02 0.155E+03 0.196E+03   0.589E+01 -.102E+02 -.139E+02
   -.457E-06 0.343E-06 0.787E-08   -.142E-13 -.284E-13 0.284E-13   0.178E-14 0.000E+00 0.000E+00

 POSITION                                       TOTAL-FORCE (eV/Angst)
      0.00000     -0.00000      0.00000         0.000000      0.000000      0.000000
     -0.00039      2.86150      1.94963         0.000479      0.000599      0.000000
      2.47753      1.43090      1.95030        -0.000479     -0.000599     -0.000000
      1.57219      2.72357      0.94433         0.004915      0.008818      0.006298
     -0.66721      4.29195      0.94376        -0.010661      0.001633      0.000839
      4.05014      1.56841      0.94501         0.004961     -0.009194      0.006231
      3.14435      0.00045      2.95617         0.010661     -0.001633     -0.000839
      0.90495      1.56883      2.95561        -0.004915     -0.008818     -0.006298
     -1.57300      2.72399      2.95492        -0.004961      0.009194     -0.006231
    total drift:                               -0.000000      0.000000      0.000000

  FREE ENERGIE OF THE ION-ELECTRON SYSTEM (eV)
  free  energy   TOTEN  =       -79.81486922 eV

  energy  without entropy=      -79.81719747  energy(sigma->0) =      -79.81545128

 d Force = 0.2613886E-03[-0.270E-03, 0.793E-03]  d Energy = 0.7029277E-03-0.442E-03
 d Force = 0.1133336E+01[ 0.111E+01, 0.116E+01]  d Ewald  = 0.3238192E+01-0.210E+01

 Quasi-Newton relaxation of ions (Broydens 2nd method)
  g(Force)  = 0.393E-04   g(Stress)= 0.922E-04

 retain information from N=  1 steps
 eigenvalues of (default step * inverse Hessian matrix)
  average eigenvalue of G=   2.3336
 eigenvalue spectrum of G is  2.3336

 reached required accuracy - stopping structural energy minimisation
 writing wavefunctions

 total charge

[...]

 magnetization (x)

# of ion       s       p       d       tot
    1        0.001   0.005   0.000   0.006
    2        0.030   0.053   2.880   2.963
    3        0.030   0.053   2.880   2.963
    4       -0.012  -0.438   0.000  -0.450
    5       -0.012  -0.438   0.000  -0.450
    6       -0.012  -0.437   0.000  -0.450
    7       -0.012  -0.438   0.000  -0.450
    8       -0.012  -0.438   0.000  -0.450
    9       -0.012  -0.437   0.000  -0.450
tot         -0.011  -2.515   5.760   3.234