 vasp.5.4.4.18Apr17-6-g9f103f2a35 (build Dec 07 2017 12:23:07) complex

 executed on     UA-Leibniz-2016b date 2018.11.06  18:56:27

 INCAR:
 POTCAR:    PAW_PBE Li_sv 10Sep2004
 POTCAR:    PAW_PBE Ir 06Sep2000
 POTCAR:    PAW_PBE O 08Apr2002

 POTCAR:    PAW_PBE Li_sv 10Sep2004
   VRHFIN =Li: 1s2s2p

   TITEL  = PAW_PBE Li_sv 10Sep2004
   POMASS =    7.010; ZVAL   =    3.000    mass and valenz
   ENMAX  =  499.034; ENMIN  =  374.276 eV

 POTCAR:    PAW_PBE Ir 06Sep2000
   VRHFIN =Ir: s1d8

   TITEL  = PAW_PBE Ir 06Sep2000
   POMASS =  192.220; ZVAL   =    9.000    mass and valenz
   ENMAX  =  210.864; ENMIN  =  158.148 eV

 POTCAR:    PAW_PBE O 08Apr2002
   VRHFIN =O: s2p4

   TITEL  = PAW_PBE O 08Apr2002
   POMASS =   16.000; ZVAL   =    6.000    mass and valenz
   ENMAX  =  400.000; ENMIN  =  300.000 eV

 Optimization of the real space projectors (new method)

 maximal supplied QI-value         = 22.11
 optimisation between [QCUT,QGAM] = [ 11.28, 22.77] = [ 35.61,145.23] Ry
 Optimized for a Real-space Cutoff    1.07 Angstroem

   l    n(q)    QCUT    max X(q) W(low)/X(q) W(high)/X(q)  e(spline)
   0      7    11.276    10.506    0.35E-04    0.79E-04    0.14E-07
   0      7    11.276     8.367    0.77E-04    0.18E-03    0.29E-07
   1      7    11.276     8.983    0.48E-03    0.57E-03    0.79E-07
 Optimization of the real space projectors (new method)

[...]

   l    n(q)    QCUT    max X(q) W(low)/X(q) W(high)/X(q)  e(spline)
   2      9    11.346   134.116    0.47E-03    0.13E-03    0.92E-06
   2      9    11.346   130.192    0.47E-03    0.13E-03    0.92E-06
   0     10    11.346    60.310    0.74E-04    0.13E-03    0.69E-06
   0     10    11.346    39.218    0.68E-04    0.12E-03    0.65E-06
   1     10    11.346    18.439    0.15E-03    0.34E-04    0.20E-06
   1     10    11.346    12.760    0.12E-03    0.31E-04    0.16E-06
 Optimization of the real space projectors (new method)

 maximal supplied QI-value         = 24.76
 optimisation between [QCUT,QGAM] = [ 11.39, 22.77] = [ 36.31,145.25] Ry
 Optimized for a Real-space Cutoff    1.00 Angstroem

   l    n(q)    QCUT    max X(q) W(low)/X(q) W(high)/X(q)  e(spline)
   0      7    11.387    20.381    0.39E-03    0.13E-02    0.15E-06
   0      7    11.387    15.268    0.42E-03    0.14E-02    0.17E-06
   1      6    11.387     5.964    0.41E-03    0.11E-02    0.17E-06
   1      6    11.387     5.382    0.39E-03    0.87E-03    0.15E-06
  PAW_PBE Li_sv 10Sep2004               :
  PAW_PBE Ir 06Sep2000                  :
  PAW_PBE O 08Apr2002                   :

 POSCAR: Li4 Ir2 O6
  positions in direct lattice
 exchange correlation table for  LEXCH =        8
   RHO(1)=    0.500       N(1)  =     2000
   RHO(2)=  100.500       N(2)  =     4000

 ion  position               nearest neighbor table
   1  0.000  0.000  0.000-   8 2.24   9 2.24  10 2.24  12 2.24  11 2.24   7 2.24   2 2.30   2 2.30

   2  0.000  0.000  0.500-   8 2.11   9 2.11  10 2.11  12 2.11  11 2.11   7 2.11   1 2.30   1 2.30
                             6 2.99   5 2.99   6 2.99   5 2.99   6 2.99   5 2.99
   3  0.333  0.667  0.000-   8 2.10  12 2.10  10 2.10   9 2.10  11 2.10   7 2.10   5 2.30   5 2.30

   4  0.667  0.333  0.000-   9 2.10  10 2.10   8 2.10  12 2.10  11 2.10   7 2.10   6 2.30   6 2.30

   5  0.333  0.667  0.500-   8 1.96  12 1.96  10 1.96   9 1.96  11 1.96   7 1.96   3 2.30   3 2.30
                             2 2.99   6 2.99   6 2.99   2 2.99   2 2.99   6 2.99
   6  0.667  0.333  0.500-   9 1.96  10 1.96   8 1.96  12 1.96  11 1.96   7 1.96   4 2.30   4 2.30
                             2 2.99   5 2.99   5 2.99   2 2.99   2 2.99   5 2.99
   7  0.644  0.644  0.276-   5 1.96   6 1.96   3 2.10   4 2.10   2 2.11   1 2.24
   8  0.356  0.000  0.276-   5 1.96   6 1.96   3 2.10   4 2.10   2 2.11   1 2.24
   9  0.000  0.356  0.276-   6 1.96   5 1.96   4 2.10   3 2.10   2 2.11   1 2.24
  10  0.644  0.000  0.724-   6 1.96   5 1.96   4 2.10   3 2.10   2 2.11   1 2.24
  11  0.356  0.356  0.724-   5 1.96   6 1.96   3 2.10   4 2.10   2 2.11   1 2.24
  12  0.000  0.644  0.724-   5 1.96   6 1.96   3 2.10   4 2.10   2 2.11   1 2.24

  LATTYP: Found a hexagonal cell.
 ALAT       =     5.1741220000
 C/A-ratio  =     0.8889832903

  Lattice vectors:

 A1 = (   2.5870610000,  -4.4809210000,   0.0000000000)
 A2 = (   2.5870610000,   4.4809210000,   0.0000000000)
 A3 = (   0.0000000000,   0.0000000000,   4.5997080000)

Analysis of symmetry for initial positions (statically):
 Subroutine PRICEL returns:
 Original cell was already a primitive cell.

 Routine SETGRP: Setting up the symmetry group for a
 hexagonal supercell.

 Subroutine GETGRP returns: Found 12 space group operations
 (whereof 12 operations were pure point group operations)
 out of a pool of 24 trial point group operations.

The static configuration has the point symmetry D_3d.

Analysis of symmetry for dynamics (positions and initial velocities):
 Subroutine PRICEL returns:
 Original cell was already a primitive cell.

[...]

The dynamic configuration has the point symmetry D_3d.

Analysis of structural, dynamic, and magnetic symmetry:
 Subroutine PRICEL returns:
 Original cell was already a primitive cell.

 Routine SETGRP: Setting up the symmetry group for a
 hexagonal supercell.

 Subroutine GETGRP returns: Found 12 space group operations
 (whereof 12 operations were pure point group operations)
 out of a pool of 24 trial point group operations.

The magnetic configuration has the point symmetry D_3d.

 Subroutine INISYM returns: Found 12 space group operations
 (whereof 12 operations are pure point group operations),
 and found     1 'primitive' translations

 KPOINTS: pymatgen 4.7.6+ generated KPOINTS with g

Automatic generation of k-mesh.
Space group operators:
 irot       det(A)        alpha          n_x          n_y          n_z        tau_x        tau_y        tau_z
    1     1.000000     0.000001     1.000000     0.000000     0.000000     0.000000     0.000000     0.000000
    2    -1.000000     0.000001     1.000000     0.000000     0.000000     0.000000     0.000000     0.000000
    3     1.000000   120.000000     0.000000     0.000000    -1.000000     0.000000     0.000000     0.000000
    4    -1.000000   120.000000     0.000000     0.000000    -1.000000     0.000000     0.000000     0.000000
    5     1.000000   120.000000     0.000000     0.000000     1.000000     0.000000     0.000000     0.000000
    6    -1.000000   120.000000     0.000000     0.000000     1.000000     0.000000     0.000000     0.000000
    7     1.000000   179.999999    -0.000000     1.000000     0.000000     0.000000     0.000000     0.000000
    8    -1.000000   179.999999    -0.000000     1.000000     0.000000     0.000000     0.000000     0.000000
    9     1.000000   180.000000     0.866025     0.500000     0.000000     0.000000     0.000000     0.000000
   10    -1.000000   180.000000     0.866025     0.500000     0.000000     0.000000     0.000000     0.000000
   11     1.000000   180.000000     0.866025    -0.500000     0.000000     0.000000     0.000000     0.000000
   12    -1.000000   180.000000     0.866025    -0.500000     0.000000     0.000000     0.000000     0.000000

 Subroutine IBZKPT returns following result:

 Found     24 irreducible k-points:

 Following reciprocal coordinates:
            Coordinates               Weight
  0.000000  0.000000  0.000000      1.000000
  0.200000 -0.000000  0.000000      6.000000
  0.400000 -0.000000  0.000000      6.000000
  0.200000  0.200000  0.000000      6.000000
  0.400000  0.200000  0.000000      6.000000
  0.000000  0.000000  0.166667      2.000000
  0.200000 -0.000000  0.166667     12.000000
  0.400000 -0.000000  0.166667     12.000000
  0.200000  0.200000  0.166667      6.000000
  0.400000  0.200000  0.166667      6.000000
 -0.200000  0.400000  0.166667      6.000000
 -0.400000 -0.400000  0.166667      6.000000
  0.000000  0.000000  0.333333      2.000000
  0.200000 -0.000000  0.333333     12.000000
  0.400000 -0.000000  0.333333     12.000000
  0.200000  0.200000  0.333333      6.000000
  0.400000  0.200000  0.333333      6.000000
 -0.200000  0.400000  0.333333      6.000000
 -0.400000 -0.400000  0.333333      6.000000
  0.000000  0.000000  0.500000      1.000000
  0.200000 -0.000000  0.500000      6.000000
  0.400000 -0.000000  0.500000      6.000000
  0.200000  0.200000  0.500000      6.000000
  0.400000  0.200000  0.500000      6.000000

 Following cartesian coordinates:
            Coordinates               Weight
  0.000000  0.000000  0.000000      1.000000
  0.038654 -0.022317  0.000000      6.000000
  0.077308 -0.044634  0.000000      6.000000
  0.077308  0.000000  0.000000      6.000000
  0.115962 -0.022317  0.000000      6.000000
  0.000000  0.000000  0.036234      2.000000
  0.038654 -0.022317  0.036234     12.000000
  0.077308 -0.044634  0.036234     12.000000
  0.077308  0.000000  0.036234      6.000000
  0.115962 -0.022317  0.036234      6.000000
  0.038654  0.066951  0.036234      6.000000
 -0.154616 -0.000000  0.036234      6.000000
  0.000000  0.000000  0.072468      2.000000
  0.038654 -0.022317  0.072468     12.000000
  0.077308 -0.044634  0.072468     12.000000
  0.077308  0.000000  0.072468      6.000000
  0.115962 -0.022317  0.072468      6.000000
  0.038654  0.066951  0.072468      6.000000
 -0.154616 -0.000000  0.072468      6.000000
  0.000000  0.000000  0.108703      1.000000
  0.038654 -0.022317  0.108703      6.000000
  0.077308 -0.044634  0.108703      6.000000
  0.077308  0.000000  0.108703      6.000000
  0.115962 -0.022317  0.108703      6.000000

 Subroutine IBZKPT_HF returns following result:

 Found    150 k-points in 1st BZ
 the following    150 k-points will be used (e.g. in the exchange kernel)
 Following reciprocal coordinates:   # in IRBZ
  0.000000  0.000000  0.000000    0.00666667   1 t-inv F
  0.200000 -0.000000  0.000000    0.00666667   2 t-inv F
  0.400000 -0.000000  0.000000    0.00666667   3 t-inv F
  0.200000  0.200000  0.000000    0.00666667   4 t-inv F
  0.400000  0.200000  0.000000    0.00666667   5 t-inv F
  0.000000  0.000000  0.166667    0.00666667   6 t-inv F
  0.200000 -0.000000  0.166667    0.00666667   7 t-inv F
  0.400000 -0.000000  0.166667    0.00666667   8 t-inv F
  0.200000  0.200000  0.166667    0.00666667   9 t-inv F
  0.400000  0.200000  0.166667    0.00666667  10 t-inv F
 -0.200000  0.400000  0.166667    0.00666667  11 t-inv F
 -0.400000 -0.400000  0.166667    0.00666667  12 t-inv F
  0.000000  0.000000  0.333333    0.00666667  13 t-inv F
  0.200000 -0.000000  0.333333    0.00666667  14 t-inv F
  0.400000 -0.000000  0.333333    0.00666667  15 t-inv F
  0.200000  0.200000  0.333333    0.00666667  16 t-inv F
  0.400000  0.200000  0.333333    0.00666667  17 t-inv F
 -0.200000  0.400000  0.333333    0.00666667  18 t-inv F
 -0.400000 -0.400000  0.333333    0.00666667  19 t-inv F
  0.000000  0.000000  0.500000    0.00666667  20 t-inv F
  0.200000 -0.000000  0.500000    0.00666667  21 t-inv F
  0.400000 -0.000000  0.500000    0.00666667  22 t-inv F
  0.200000  0.200000  0.500000    0.00666667  23 t-inv F
  0.400000  0.200000  0.500000    0.00666667  24 t-inv F
[...]
  Hartree   394.25081   394.24982   235.12065     0.00000    -0.00000     0.00001
  E(xc)    -242.90193  -242.90223  -243.67596    -0.00000    -0.00000    -0.00003
  Local    -379.11596  -379.10805    38.15985    -0.00000     0.00000     0.00002
  n-local  -197.96281  -198.82757  -202.76004    -0.50312    -0.79932    -0.46467
  augment   175.86731   175.87009   180.94598     0.00000     0.00000     0.00015
  Kinetic  1184.02222  1182.75490  1214.82337    -1.54883     0.69437    -0.18140
  Fock      -78.72380   -78.51614   -82.34172     0.12463    -0.06403    -0.04372
  Total       8.06056     8.06056    19.91059    -0.00000     0.00000     0.00000
  in kB     121.09935   121.09935   299.13036    -0.00000     0.00000     0.00000

 VOLUME and BASIS-vectors are now :
  energy-cutoff  :      500.00
  volume of cell :      106.64
      direct lattice vectors                 reciprocal lattice vectors
     2.587061000 -4.480921000  0.000000000     0.193269505 -0.111584203  0.000000000
     2.587061000  4.480921000  0.000000000     0.193269505  0.111584203  0.000000000
     0.000000000  0.000000000  4.599708000     0.000000000  0.000000000  0.217405105

[...]

 FORCES acting on ions:
    Electron-Ion                     Ewald-Force                    Non-Local-Force
   0.151E-06 0.107E-06 -.205E-06   -.533E-14 -.355E-14 -.711E-14   -.105E-21 -.104E-21 0.631E-22
   0.466E-06 0.236E-07 0.121E-06   -.178E-13 0.000E+00 -.711E-14   0.259E-21 -.252E-21 -.686E-22
   -.202E-06 -.116E-02 -.523E-05   0.142E-13 -.337E-03 0.213E-13   -.717E-19 0.200E-18 -.953E-20
   0.190E-06 0.116E-02 0.492E-05   0.355E-13 0.337E-03 0.711E-14   -.114E-18 -.177E-18 0.739E-20
   0.684E-06 0.465E-03 0.562E-05   0.426E-13 -.151E-02 -.995E-13   0.134E-16 0.565E-17 0.274E-18
   -.282E-05 -.459E-03 -.511E-05   0.000E+00 0.151E-02 0.142E-13   -.127E-16 0.103E-16 0.404E-18
   -.929E+02 -.513E-05 0.137E+03   0.105E+03 -.178E-13 -.154E+03   -.951E+01 -.216E-16 0.143E+02
   0.464E+02 -.804E+02 0.137E+03   -.524E+02 0.907E+02 -.154E+03   0.476E+01 -.824E+01 0.143E+02
   0.464E+02 0.804E+02 0.137E+03   -.524E+02 -.907E+02 -.154E+03   0.476E+01 0.824E+01 0.143E+02
   -.464E+02 0.804E+02 -.137E+03   0.524E+02 -.907E+02 0.154E+03   -.476E+01 0.824E+01 -.143E+02
   0.929E+02 0.731E-05 -.137E+03   -.105E+03 0.622E-14 0.154E+03   0.951E+01 -.984E-16 -.143E+02
   -.464E+02 -.804E+02 -.137E+03   0.524E+02 0.907E+02 0.154E+03   -.476E+01 -.824E+01 -.143E+02
   -.127E-05 0.607E-05 0.107E-05   -.711E-14 0.142E-13 0.114E-12   0.178E-14 0.178E-14 0.000E+00

 POSITION                                       TOTAL-FORCE (eV/Angst)
      0.00000      0.00000      0.00000        -0.000000     -0.000000      0.000000
      0.00000      0.00000      2.29985        -0.000000     -0.000000     -0.000000
      2.58706      1.49364      0.00000        -0.000000     -0.000000     -0.000000
      2.58706     -1.49364      0.00000        -0.000000     -0.000000     -0.000000
      2.58706      1.49364      2.29985        -0.000000     -0.000000     -0.000000
      2.58706     -1.49364      2.29985        -0.000000     -0.000000     -0.000000
      3.33002     -0.00000      1.26767         0.983473     -0.000000     -1.124895
      0.92205     -1.59704      1.26767        -0.491737      0.851713     -1.124895
      0.92205      1.59704      1.26767        -0.491737     -0.851713     -1.124895
      1.66501     -2.88388      3.33203         0.491737     -0.851713      1.124895
      1.84410      0.00000      3.33203        -0.983473     -0.000000      1.124895
      1.66501      2.88388      3.33203         0.491737      0.851713      1.124895
    total drift:                               -0.000001      0.000006      0.000001

  FREE ENERGIE OF THE ION-ELECTRON SYSTEM (eV)
  free  energy   TOTEN  =       -85.60878162 eV

  energy  without entropy=      -85.60878089  energy(sigma->0) =      -85.60878126

[...]

 d Force = 0.6790141E-01[-0.549E+00, 0.685E+00]  d Energy = 0.2410941E-01 0.438E-01
 d Force = 0.7659656E+02[ 0.681E+02, 0.851E+02]  d Ewald  =-0.9899396E+02 0.176E+03

 Steepest descent step on ions:
 trial-energy change:   -0.024109  1 .order   -0.328837   -2.762394    2.104720
  (g-gl).g = 0.276E+01      g.g   = 0.276E+01  gl.gl    = 0.000E+00
 g(Force)  = 0.646E+00   g(Stress)= 0.212E+01 ortho     = 0.000E+00
 gamma     =   0.00000
 trial     =   1.00000
 opt step  =   0.47390  (harmonic =   0.56756) maximal distance =0.02571782
 next E    =   -86.230904   (d E  =  -0.62212)

[...]

 d Force = 0.1007568E+00[-0.599E-01, 0.261E+00]  d Energy = 0.5025589E+00-0.402E+00
 d Force =-0.3468668E+02[-0.367E+02,-0.327E+02]  d Ewald  = 0.5360136E+02-0.883E+02

[...]

 d Force = 0.4176897E-02[ 0.237E-02, 0.599E-02]  d Energy = 0.4217668E-02-0.408E-04
 d Force = 0.3712395E+01[ 0.369E+01, 0.373E+01]  d Ewald  =-0.5238348E+01 0.895E+01

[...]

 eigenvalue-minimisations  :     0
 total energy-change (2. order) :-0.5340258E-02  ( 0.4361332E+00)
 number of electron      65.9999930 magnetization       2.0000005
 augmentation part       12.8510037 magnetization       0.8969762

[...]

 d Force = 0.1421751E-01[-0.206E-01, 0.491E-01]  d Energy = 0.5377006E+00-0.523E+00
 d Force = 0.2289299E+02[ 0.223E+02, 0.235E+02]  d Ewald  = 0.1429085E+02 0.860E+01

 Conjugate gradient step on ions:
 trial-energy change:   -0.537701  1 .order   -0.515156   -0.786895   -0.243417
  (g-gl).g = 0.904E+00      g.g   = 0.878E+00  gl.gl    = 0.276E+01
 g(Force)  = 0.412E-01   g(Stress)= 0.837E+00 ortho     =-0.260E-01
 gamma     =   0.32721
 trial     =   0.90512
 opt step  =   1.20935  (harmonic =   1.31052) maximal distance =0.03875065
 next E    =   -86.719132   (d E  =  -0.57946)

[...]

 d Force =-0.1291415E-01[-0.191E-01,-0.674E-02]  d Energy = 0.4795494E-01-0.609E-01
 d Force = 0.7416520E+01[ 0.735E+01, 0.748E+01]  d Ewald  = 0.5223214E+01 0.219E+01

[...]

 d Force =-0.2676218E-01[-0.107E+00, 0.532E-01]  d Energy = 0.5379553E-02-0.321E-01
 d Force =-0.1948776E+02[-0.207E+02,-0.183E+02]  d Ewald  = 0.6244311E+02-0.819E+02

 Conjugate gradient step on ions:
 trial-energy change:   -0.005380  1 .order    0.016358   -0.498325    0.531041
  (g-gl).g = 0.170E+00      g.g   = 0.514E+00  gl.gl    = 0.878E+00
 g(Force)  = 0.678E-01   g(Stress)= 0.447E+00 ortho     = 0.715E-02
 gamma     =   0.19335
 trial     =   0.96597
 opt step  =   0.49820  (harmonic =   0.46763) maximal distance =0.00977510
 next E    =   -86.856812   (d E  =  -0.13149)

[...]

 d Force = 0.3134760E-01[ 0.101E-01, 0.526E-01]  d Energy = 0.1292333E+00-0.979E-01
 d Force = 0.9896033E+01[ 0.960E+01, 0.102E+02]  d Ewald  =-0.3019803E+02 0.401E+02

[...]

 d Force = 0.8168312E-02[ 0.392E-02, 0.124E-01]  d Energy = 0.9323163E-02-0.115E-02
 d Force = 0.8947872E+01[ 0.888E+01, 0.902E+01]  d Ewald  = 0.1575380E+02-0.681E+01

 Conjugate gradient step on ions:
 trial-energy change:   -0.009323  1 .order   -0.010143   -0.014573   -0.005713
  (g-gl).g = 0.245E-01      g.g   = 0.165E-01  gl.gl    = 0.514E+00
 g(Force)  = 0.153E-01   g(Stress)= 0.125E-02 ortho     = 0.357E-02
 gamma     =   0.04752
 trial     =   0.87242
 opt step  =   1.43487  (harmonic =   1.43487) maximal distance =0.01125894
 next E    =   -86.871920   (d E  =  -0.01198)

[...]

 d Force = 0.7668812E-03[-0.993E-03, 0.253E-02]  d Energy = 0.1651556E-02-0.885E-03
 d Force = 0.5699548E+01[ 0.567E+01, 0.573E+01]  d Ewald  = 0.1011940E+02-0.442E+01

[...]

 d Force = 0.2691620E-03[ 0.215E-03, 0.323E-03]  d Energy = 0.2827733E-03-0.136E-04
 d Force = 0.8005409E+00[ 0.799E+00, 0.802E+00]  d Ewald  = 0.5092468E+01-0.429E+01

 Conjugate gradient step on ions:
 trial-energy change:   -0.000283  1 .order   -0.000233   -0.001101    0.000634
  (g-gl).g = 0.238E-02      g.g   = 0.120E-02  gl.gl    = 0.165E-01
 g(Force)  = 0.582E-03   g(Stress)= 0.614E-03 ortho     =-0.545E-03
 gamma     =   0.14374
 trial     =   0.98491
 opt step  =   0.66200  (harmonic =   0.62483) maximal distance =0.00088892
 next E    =   -86.871296   (d E  =  -0.00039)

[...]

 eigenvalue-minimisations  :     0
 total energy-change (2. order) : 0.2314160E-02  (-0.1891955E-02)
 number of electron      66.0000046 magnetization       2.0000009
 augmentation part       12.8508082 magnetization       0.9055209

[...]

--------------------------------------- Iteration     12(   8)  ---------------------------------------

 eigenvalue-minimisations  :     0
 total energy-change (2. order) :-0.7968122E-06  (-0.3742017E-06)
 number of electron      66.0000046 magnetization       2.0000009
 augmentation part       12.8467800 magnetization       0.9054899

 Free energy of the ion-electron system (eV)
  alpha Z        PSCENC =       255.72604726
  Ewald energy   TEWEN  =     -3629.03752251
  -Hartree energ DENC   =      -978.82722259
  -exchange      EXHF   =       181.01666639
  -V(xc)+E(xc)   XCENC  =       142.71459338
  PAW double counting   =      5585.40902923    -5588.04784240
  entropy T*S    EENTRO =        -0.00002054
  eigenvalues    EBANDS =      -559.02057670
  atomic energy  EATOM  =      4503.19594114
  free energy    TOTEN  =       -86.87125863 eV

  energy without entropy =      -86.87123808  energy(sigma->0) =      -86.87124836
  exchange ACFDT corr.  =        -0.00000225  see jH, gK, PRB 81, 115126

  average scaling for gradient   0.9077

 average (electrostatic) potential at core
  the test charge radii are     0.7079  1.2793  0.7215
  (the norm of the test charge is              1.0000)
       1 -53.1284       2 -52.6842       3 -53.3223       4 -53.3223       5 -49.9216
       6 -49.9216       7 -64.3642       8 -64.3643       9 -64.3643      10 -64.3643
      11 -64.3642      12 -64.3643

 E-fermi :   4.3595     XC(G=0):  -9.2094     alpha+bet :-13.6645

[...]

 spin component 2

[...]

 k-point    24 :       0.4000    0.2000    0.5000
  band No.  band energies     occupation
      1     -43.5743      1.00000
      2     -43.5698      1.00000
      3     -43.3623      1.00000
      4     -42.9362      1.00000
      5     -16.5893      1.00000
      6     -16.4180      1.00000
      7     -16.3589      1.00000
      8     -16.0405      1.00000
      9     -15.9900      1.00000
     10     -15.7226      1.00000
     11      -3.8584      1.00000
     12      -3.4850      1.00000
     13      -3.0499      1.00000
     14      -2.8344      1.00000
     15      -2.7723      1.00000
     16      -2.5378      1.00000
     17      -2.0955      1.00000
     18      -1.8323      1.00000
     19      -1.5958      1.00000
     20      -0.5402      1.00000
     21      -0.5111      1.00000
     22      -0.2019      1.00000
     23       0.5060      1.00000
     24       0.5149      1.00000
     25       0.8324      1.00000
     26       0.9466      1.00000
     27       1.0088      1.00000
     28       1.1133      1.00000
     29       2.8842      1.00000
     30       2.9011      1.00000
     31       3.3459      1.00000
     32       3.6510      1.00000
     33       5.4704      0.00000
     34       5.6318      0.00000
     35       8.2976      0.00000
     36       8.5917      0.00000
     37       8.7497      0.00000
     38       8.8876      0.00000
     39      13.3993      0.00000
     40      13.6032      0.00000
     41      14.6028      0.00000
     42      14.8736      0.00000

[...]

 soft charge-density along one line, spin component           2
         0         1         2         3         4         5         6         7         8         9
 total charge-density along one line

------------------------ aborting loop because EDIFF is reached ----------------------------------------

[...]

  FORCE on cell =-STRESS in cart. coord.  units (eV):
  Direction    XX          YY          ZZ          XY          YZ          ZX
  Alpha Z   255.72605   255.72605   255.72605
  Ewald   -1125.66828 -1125.67126 -1377.70407    -0.00000     0.00000    -0.00001
  Hartree   392.93990   392.93930   192.95221     0.00000    -0.00000     0.00001
  E(xc)    -241.68477  -241.68445  -240.76266     0.00000    -0.00000     0.00004
  Local    -367.60628  -367.60299   103.19828    -0.00000     0.00000     0.00002
  n-local  -202.16617  -202.55367  -198.75814    -0.00420    -0.10543     0.06541
  augment   181.57362   181.57556   172.86661    -0.00000     0.00000    -0.00002
  Kinetic  1187.71454  1188.64928  1169.29741     0.58345    -0.51984    -1.14780
  Fock      -81.05041   -80.94101   -76.78371     0.01559     0.10612     0.08982
  Total       0.10751     0.10751     0.03197    -0.00000     0.00000     0.00000
  in kB       1.57773     1.57773     0.46914    -0.00000     0.00000     0.00000

 VOLUME and BASIS-vectors are now :
  energy-cutoff  :      500.00
  volume of cell :      109.18
      direct lattice vectors                 reciprocal lattice vectors
     2.495849315 -4.322937738  0.000000000     0.200332607 -0.115662087  0.000000000
     2.495849315  4.322937738  0.000000000     0.200332607  0.115662087  0.000000000
    -0.000000000  0.000000000  5.059583779    -0.000000000 -0.000000000  0.197644716

  length of vectors
     4.991698558  4.991698558  5.059583779     0.231324170  0.231324170  0.197644716

 FORCES acting on ions:
    Electron-Ion                     Ewald-Force                    Non-Local-Force
   -.342E-07 -.670E-07 -.459E-09   0.711E-14 0.000E+00 -.711E-14   0.355E-22 -.132E-22 -.820E-23
   -.507E-08 -.223E-07 -.628E-08   0.178E-13 -.355E-14 -.178E-13   0.705E-22 0.632E-21 0.236E-21
   -.434E-07 -.104E-02 0.413E-06   0.711E-14 -.299E-03 0.711E-14   0.729E-19 0.271E-19 -.998E-20
   0.648E-07 0.104E-02 -.415E-06   -.107E-13 0.299E-03 0.107E-13   0.101E-18 0.915E-19 0.708E-20
   0.118E-06 0.406E-03 0.547E-07   0.213E-13 -.136E-02 0.142E-12   0.455E-17 -.204E-17 0.781E-19
   -.142E-06 -.406E-03 -.506E-07   -.853E-13 0.136E-02 0.171E-12   -.134E-17 -.789E-17 -.898E-19
   -.651E+02 0.294E-06 0.141E+03   0.775E+02 0.355E-13 -.159E+03   -.108E+02 -.364E-16 0.152E+02
   0.325E+02 -.564E+02 0.141E+03   -.387E+02 0.671E+02 -.159E+03   0.538E+01 -.932E+01 0.152E+02
   0.325E+02 0.564E+02 0.141E+03   -.387E+02 -.671E+02 -.159E+03   0.538E+01 0.932E+01 0.152E+02
   -.325E+02 0.564E+02 -.141E+03   0.387E+02 -.671E+02 0.159E+03   -.538E+01 0.932E+01 -.152E+02
   0.651E+02 -.282E-06 -.141E+03   -.775E+02 0.184E-13 0.159E+03   0.108E+02 0.811E-16 -.152E+02
   -.325E+02 -.564E+02 -.141E+03   0.387E+02 0.671E+02 0.159E+03   -.538E+01 -.932E+01 -.152E+02
   -.293E-07 -.278E-06 0.376E-07   0.142E-13 0.000E+00 0.114E-12   0.000E+00 -.178E-14 0.178E-14

 POSITION                                       TOTAL-FORCE (eV/Angst)
      0.00000     -0.00000     -0.00000        -0.000000     -0.000000     -0.000000
      0.00000     -0.00000      2.52979        -0.000000      0.000000     -0.000000
      2.49585      1.44098      0.00000         0.000000      0.000000     -0.000000
      2.49585     -1.44098      0.00000        -0.000000      0.000000     -0.000000
      2.49585      1.44098      2.52979         0.000000      0.000000     -0.000000
      2.49585     -1.44098      2.52979         0.000000     -0.000000     -0.000000
      3.28364     -0.00000      1.34711        -0.021902     -0.000000     -0.023313
      0.85403     -1.47922      1.34711         0.010951     -0.018968     -0.023313
      0.85403      1.47922      1.34711         0.010951      0.018968     -0.023313
      1.64182     -2.84371      3.71247        -0.010951      0.018968      0.023313
      1.70806     -0.00000      3.71247         0.021902     -0.000000      0.023313
      1.64182      2.84371      3.71247        -0.010951     -0.018968      0.023313
    total drift:                               -0.000000     -0.000000      0.000000

  FREE ENERGIE OF THE ION-ELECTRON SYSTEM (eV)
  free  energy   TOTEN  =       -86.87125863 eV

  energy  without entropy=      -86.87123808  energy(sigma->0) =      -86.87124836

 d Force =-0.8703868E-04[-0.103E-03,-0.708E-04]  d Energy = 0.6511400E-04-0.152E-03
 d Force =-0.2626213E+00[-0.263E+00,-0.262E+00]  d Ewald  =-0.1670640E+01 0.141E+01

 reached required accuracy - stopping structural energy minimisation

 total charge

[...]

 magnetization (x)

# of ion       s       p       d       tot
    1       -0.000  -0.001   0.000  -0.001
    2        0.001  -0.001   0.000   0.001
    3       -0.000  -0.002   0.000  -0.002
    4       -0.000  -0.002   0.000  -0.002
    5        0.012   0.003   0.723   0.738
    6        0.012   0.003   0.723   0.738
    7        0.002   0.073   0.000   0.075
    8        0.002   0.071   0.000   0.072
    9        0.002   0.079   0.000   0.080
   10        0.002   0.071   0.000   0.072
   11        0.002   0.073   0.000   0.075
   12        0.002   0.079   0.000   0.080
tot          0.035   0.446   1.446   1.927