 vasp.5.4.1 24Jun15 (build Mar 16 2017 16:02:35) complex

 executed on        BRENIAC-2016a date 2017.07.16  07:19:05

 INCAR:
 POTCAR:    PAW_PBE Li_sv 10Sep2004
 POTCAR:    PAW_PBE Mn_pv 02Aug2007
 POTCAR:    PAW_PBE O 08Apr2002

 POTCAR:    PAW_PBE Li_sv 10Sep2004
   VRHFIN =Li: 1s2s2p

   TITEL  = PAW_PBE Li_sv 10Sep2004
   POMASS =    7.010; ZVAL   =    3.000    mass and valenz
   ENMAX  =  499.034; ENMIN  =  374.276 eV

 POTCAR:    PAW_PBE Mn_pv 02Aug2007
   VRHFIN =Mn: 3p4s3d

   TITEL  = PAW_PBE Mn_pv 02Aug2007
   POMASS =   54.938; ZVAL   =   13.000    mass and valenz
   ENMAX  =  269.864; ENMIN  =  202.398 eV

 POTCAR:    PAW_PBE O 08Apr2002
   VRHFIN =O: s2p4

   TITEL  = PAW_PBE O 08Apr2002
   POMASS =   16.000; ZVAL   =    6.000    mass and valenz
   ENMAX  =  400.000; ENMIN  =  300.000 eV

  PAW_PBE Li_sv 10Sep2004               :
  PAW_PBE Mn_pv 02Aug2007               :
  PAW_PBE O 08Apr2002                   :

 POSCAR: Li2MnO3 - Primitive cell (Cation arrange
  positions in direct lattice
  velocities in cartesian coordinates
 exchange correlation table for  LEXCH =        8
   RHO(1)=    0.500       N(1)  =     2000
   RHO(2)=  100.500       N(2)  =     4000

 ion  position               nearest neighbor table
   1  0.500  0.500  0.000-  10 2.08  11 2.08  12 2.08   9 2.08   7 2.10   8 2.10   5 2.87   6 2.87
                             6 2.88   5 2.88   5 2.88   6 2.88
   2  0.000  0.000  0.500-   7 2.02   8 2.02   9 2.17  12 2.17  11 2.17  10 2.17
   3  0.662  0.338  0.500-   9 2.05  10 2.05   7 2.13   8 2.13  12 2.19  11 2.19
   4  0.338  0.662  0.500-  12 2.05  11 2.05   7 2.13   8 2.13   9 2.19  10 2.19
   5  0.167  0.833  0.000-   9 1.93  10 1.93  11 1.93  12 1.93   8 1.94   7 1.94   1 2.87   6 2.88
                             6 2.88   1 2.88   1 2.88   6 2.88
   6  0.833  0.167  0.000-  12 1.93  11 1.93  10 1.93   9 1.93   8 1.94   7 1.94   1 2.87   5 2.88
                             5 2.88   1 2.88   1 2.88   5 2.88
   7  0.781  0.781  0.229-   6 1.94   5 1.94   2 2.02   1 2.10   3 2.13   4 2.13
   8  0.219  0.219  0.771-   5 1.94   6 1.94   2 2.02   1 2.10   4 2.13   3 2.13
   9  0.067  0.424  0.225-   5 1.93   6 1.93   3 2.05   1 2.08   2 2.17   4 2.19
  10  0.576  0.933  0.775-   5 1.93   6 1.93   3 2.05   1 2.08   2 2.17   4 2.19
  11  0.933  0.576  0.775-   6 1.93   5 1.93   4 2.05   1 2.08   2 2.17   3 2.19
  12  0.424  0.067  0.225-   6 1.93   5 1.93   4 2.05   1 2.08   2 2.17   3 2.19

  LATTYP: Found a base centered monoclinic cell.
 ALAT       =     4.9920597177
 B/A-ratio  =     1.7279265295
 C/A-ratio  =     2.5282901536
 COS(beta)  =    -0.4634671370

  Lattice vectors:

 A1 = (  -2.4838287990,   4.3199942979,   0.0003180525)
 A2 = (   4.9831470376,   0.0013559728,   0.0003180525)
 A3 = (  -5.8465366248, -10.1087297472,  -4.7886021073)

Analysis of symmetry for initial positions (statically):
 Subroutine PRICEL returns:
 Original cell was already a primitive cell.

 Routine SETGRP: Setting up the symmetry group for a
 base centered monoclinic supercell.

 Subroutine GETGRP returns: Found  4 space group operations
 (whereof  4 operations were pure point group operations)
 out of a pool of  4 trial point group operations.

The static configuration has the point symmetry C_2h.

Analysis of symmetry for dynamics (positions and initial velocities):
 Subroutine PRICEL returns:
 Original cell was already a primitive cell.

[...]

The dynamic configuration has the point symmetry C_2h.

Analysis of structural, dynamic, and magnetic symmetry:
 Subroutine PRICEL returns:
 Original cell was already a primitive cell.

 Routine SETGRP: Setting up the symmetry group for a
 base centered monoclinic supercell.

 Subroutine GETGRP returns: Found  4 space group operations
 (whereof  4 operations were pure point group operations)
 out of a pool of  4 trial point group operations.

The magnetic configuration has the point symmetry C_2h.

 Subroutine INISYM returns: Found  4 space group operations
 (whereof  4 operations are pure point group operations),
 and found     1 'primitive' translations

 KPOINTS: Gamma

Automatic generation of k-mesh.
Space group operators:
 irot       det(A)        alpha          n_x          n_y          n_z        tau_x        tau_y        tau_z
    1     1.000000     0.000000     1.000000     0.000000     0.000000     0.000000     0.000000     0.000000
    2    -1.000000     0.000000     1.000000     0.000000     0.000000     0.000000     0.000000     0.000000
    3     1.000000   180.000000     0.865645    -0.500659     0.000000     0.000000     0.000000     0.000000
    4    -1.000000   180.000000     0.865645    -0.500659     0.000000     0.000000     0.000000     0.000000

 Subroutine IBZKPT returns following result:

 Found     24 irreducible k-points:

 Following reciprocal coordinates:
            Coordinates               Weight
  0.000000  0.000000  0.000000      1.000000
  0.250000  0.000000  0.000000      4.000000
  0.500000  0.000000  0.000000      2.000000
  0.250000  0.250000 -0.000000      2.000000
  0.500000  0.250000  0.000000      4.000000
 -0.250000  0.250000 -0.000000      2.000000
  0.500000  0.500000 -0.000000      1.000000
  0.000000 -0.000000  0.250000      2.000000
  0.250000 -0.000000  0.250000      4.000000
  0.500000  0.000000  0.250000      4.000000
 -0.250000 -0.000000  0.250000      4.000000
  0.250000  0.250000  0.250000      2.000000
  0.500000  0.250000  0.250000      4.000000
 -0.250000  0.250000  0.250000      4.000000
  0.500000  0.500000  0.250000      2.000000
 -0.250000  0.500000  0.250000      4.000000
 -0.250000 -0.250000  0.250000      2.000000
  0.000000 -0.000000  0.500000      1.000000
  0.250000  0.000000  0.500000      4.000000
  0.500000 -0.000000  0.500000      2.000000
  0.250000  0.250000  0.500000      2.000000
  0.500000  0.250000  0.500000      4.000000
 -0.250000  0.250000  0.500000      2.000000
  0.500000  0.500000  0.500000      1.000000

 Following cartesian coordinates:
            Coordinates               Weight
  0.000000  0.000000  0.000000      1.000000
  0.050162  0.028843 -0.017717      4.000000
  0.100325  0.057685 -0.035434      2.000000
  0.050148  0.086706 -0.035434      2.000000
  0.100310  0.115549 -0.053151      4.000000
 -0.050177  0.029021 -0.000000      2.000000
  0.100296  0.173412 -0.070868      1.000000
 -0.000003 -0.000006  0.052224      2.000000
  0.050159  0.028837  0.034507      4.000000
  0.100321  0.057680  0.016790      4.000000
 -0.050166 -0.028848  0.069940      4.000000
  0.050144  0.086700  0.016790      2.000000
  0.100307  0.115543 -0.000927      4.000000
 -0.050180  0.029015  0.052224      4.000000
  0.100292  0.173406 -0.018644      2.000000
 -0.050195  0.086878  0.034507      4.000000
 -0.050151 -0.086712  0.087657      2.000000
 -0.000007 -0.000012  0.104447      1.000000
  0.050156  0.028831  0.086730      4.000000
  0.100318  0.057674  0.069013      2.000000
  0.050141  0.086695  0.069013      2.000000
  0.100303  0.115537  0.051296      4.000000
 -0.050184  0.029009  0.104447      2.000000
  0.100289  0.173401  0.033579      1.000000

 TETIRR: Found    180 inequivalent tetrahedra from      384

 Subroutine IBZKPT_HF returns following result:

 Found     64 k-points in 1st BZ
 the following     64 k-points will be used (e.g. in the exchange kernel)
 Following reciprocal coordinates:   # in IRBZ
  0.000000  0.000000  0.000000    0.01562500   1 t-inv F
  0.250000  0.000000  0.000000    0.01562500   2 t-inv F
  0.500000  0.000000  0.000000    0.01562500   3 t-inv F
  0.250000  0.250000 -0.000000    0.01562500   4 t-inv F
  0.500000  0.250000  0.000000    0.01562500   5 t-inv F
 -0.250000  0.250000 -0.000000    0.01562500   6 t-inv F
  0.500000  0.500000 -0.000000    0.01562500   7 t-inv F
  0.000000 -0.000000  0.250000    0.01562500   8 t-inv F
  0.250000 -0.000000  0.250000    0.01562500   9 t-inv F
  0.500000  0.000000  0.250000    0.01562500  10 t-inv F
 -0.250000 -0.000000  0.250000    0.01562500  11 t-inv F
  0.250000  0.250000  0.250000    0.01562500  12 t-inv F
  0.500000  0.250000  0.250000    0.01562500  13 t-inv F
 -0.250000  0.250000  0.250000    0.01562500  14 t-inv F
  0.500000  0.500000  0.250000    0.01562500  15 t-inv F
 -0.250000  0.500000  0.250000    0.01562500  16 t-inv F
 -0.250000 -0.250000  0.250000    0.01562500  17 t-inv F
  0.000000 -0.000000  0.500000    0.01562500  18 t-inv F
  0.250000  0.000000  0.500000    0.01562500  19 t-inv F
  0.500000 -0.000000  0.500000    0.01562500  20 t-inv F
  0.250000  0.250000  0.500000    0.01562500  21 t-inv F
  0.500000  0.250000  0.500000    0.01562500  22 t-inv F
 -0.250000  0.250000  0.500000    0.01562500  23 t-inv F
  0.500000  0.500000  0.500000    0.01562500  24 t-inv F
 -0.250000 -0.000000 -0.000000    0.01562500   2 t-inv F spinflp
 -0.000000 -0.250000 -0.000000    0.01562500   2 t-inv F
  0.000000  0.250000  0.000000    0.01562500   2 t-inv F spinflp
 -0.000000 -0.500000 -0.000000    0.01562500   3 t-inv F
 -0.250000 -0.250000  0.000000    0.01562500   4 t-inv F spinflp
 -0.500000 -0.250000 -0.000000    0.01562500   5 t-inv F spinflp
 -0.250000 -0.500000 -0.000000    0.01562500   5 t-inv F
  0.250000  0.500000  0.000000    0.01562500   5 t-inv F spinflp
  0.250000 -0.250000  0.000000    0.01562500   6 t-inv F spinflp
  0.000000  0.000000 -0.250000    0.01562500   8 t-inv F spinflp
 -0.250000  0.000000 -0.250000    0.01562500   9 t-inv F spinflp
  0.000000 -0.250000 -0.250000    0.01562500   9 t-inv F
 -0.000000  0.250000  0.250000    0.01562500   9 t-inv F spinflp
 -0.500000 -0.000000 -0.250000    0.01562500  10 t-inv F spinflp
 -0.000000 -0.500000 -0.250000    0.01562500  10 t-inv F
  0.000000  0.500000  0.250000    0.01562500  10 t-inv F spinflp
  0.250000  0.000000 -0.250000    0.01562500  11 t-inv F spinflp
  0.000000  0.250000 -0.250000    0.01562500  11 t-inv F
 -0.000000 -0.250000  0.250000    0.01562500  11 t-inv F spinflp
 -0.250000 -0.250000 -0.250000    0.01562500  12 t-inv F spinflp
 -0.500000 -0.250000 -0.250000    0.01562500  13 t-inv F spinflp
 -0.250000 -0.500000 -0.250000    0.01562500  13 t-inv F
  0.250000  0.500000  0.250000    0.01562500  13 t-inv F spinflp
  0.250000 -0.250000 -0.250000    0.01562500  14 t-inv F spinflp
 -0.250000  0.250000 -0.250000    0.01562500  14 t-inv F
  0.250000 -0.250000  0.250000    0.01562500  14 t-inv F spinflp
 -0.500000 -0.500000 -0.250000    0.01562500  15 t-inv F spinflp
  0.250000 -0.500000 -0.250000    0.01562500  16 t-inv F spinflp
 -0.500000  0.250000 -0.250000    0.01562500  16 t-inv F
  0.500000 -0.250000  0.250000    0.01562500  16 t-inv F spinflp
  0.250000  0.250000 -0.250000    0.01562500  17 t-inv F spinflp
 -0.250000 -0.000000 -0.500000    0.01562500  19 t-inv F spinflp
 -0.000000 -0.250000 -0.500000    0.01562500  19 t-inv F
  0.000000  0.250000  0.500000    0.01562500  19 t-inv F spinflp
  0.000000 -0.500000 -0.500000    0.01562500  20 t-inv F
 -0.250000 -0.250000 -0.500000    0.01562500  21 t-inv F spinflp
 -0.500000 -0.250000 -0.500000    0.01562500  22 t-inv F spinflp
 -0.250000 -0.500000 -0.500000    0.01562500  22 t-inv F
  0.250000  0.500000  0.500000    0.01562500  22 t-inv F spinflp
[...]
 k-point 11 :  -0.2500-0.0000 0.2500  plane waves:    3443
 k-point 12 :   0.2500 0.2500 0.2500  plane waves:    3445
 k-point 13 :   0.5000 0.2500 0.2500  plane waves:    3434
 k-point 14 :  -0.2500 0.2500 0.2500  plane waves:    3426
 k-point 15 :   0.5000 0.5000 0.2500  plane waves:    3442
 k-point 16 :  -0.2500 0.5000 0.2500  plane waves:    3453
 k-point 17 :  -0.2500-0.2500 0.2500  plane waves:    3458
 k-point 18 :   0.0000-0.0000 0.5000  plane waves:    3430
 k-point 19 :   0.2500 0.0000 0.5000  plane waves:    3438
 k-point 20 :   0.5000-0.0000 0.5000  plane waves:    3442
 k-point 21 :   0.2500 0.2500 0.5000  plane waves:    3456
 k-point 22 :   0.5000 0.2500 0.5000  plane waves:    3451
 k-point 23 :  -0.2500 0.2500 0.5000  plane waves:    3430
 k-point 24 :   0.5000 0.5000 0.5000  plane waves:    3450

 maximum and minimum number of plane-waves per node :      3459     3405

 maximum number of plane-waves:      3459
 maximum index in each direction:
   IXMAX=   10   IYMAX=   10   IZMAX=   10
   IXMIN=  -10   IYMIN=  -10   IZMIN=  -10

 WARNING: aliasing errors must be expected set NGX to  42 to avoid them
 WARNING: aliasing errors must be expected set NGY to  42 to avoid them
 WARNING: aliasing errors must be expected set NGZ to  42 to avoid them
 aliasing errors are usually negligible using standard VASP settings
 and one can safely disregard these warnings

 serial   3D FFT for wavefunctions
 parallel 3D FFT for charge:
    minimum data exchange during FFTs selected (reduces bandwidth)

 FFT grid for exact exchange (Hartree Fock)
  NGX = 24; NGY = 24; NGZ = 24

 Radii for the augmentation spheres in the non-local exchange
 for species   1 augmentation radius   0.956 (default was   0.708)
       energy cutoff for augmentation   2400.0
 for species   2 augmentation radius   1.293 (default was   0.958)
       energy cutoff for augmentation   2400.0
 for species   3 augmentation radius   0.974 (default was   0.722)
       energy cutoff for augmentation   2400.0
 Maximum index for augmentation-charges in exchange         1217
  SETUP_FOCK is finished

 Broyden mixing: mesh for mixing (old mesh)
   NGX = 19   NGY = 19   NGZ = 21
  (NGX  = 60   NGY  = 60   NGZ  = 60)
  gives a total of   7581 points

 initial charge density was supplied:
 charge density of overlapping atoms calculated
 number of electron      74.0000000 magnetization      -0.0000000
 keeping initial charge density in first step

 BZINTS: Fermi energy:360.134862; 74.000000 electrons
         Band energy:***********;  BLOECHL correction:-57.666385
 Maximum index for augmentation-charges          235 (set IRDMAX)

 First call to EWALD:  gamma=   0.378
 Maximum number of real-space cells 3x 3x 3
 Maximum number of reciprocal cells 3x 3x 3

 FEWALD executed in parallel

----------------------------------------- Iteration    1(   1)  ---------------------------------------

 BZINTS: Fermi energy: 57.213084; 74.000000 electrons
         Band energy:2387.622387;  BLOECHL correction: -0.974872
 BZINTS: Fermi energy: 57.213084; 74.000000 electrons
         Band energy:2387.622387;  BLOECHL correction: -0.974872

 eigenvalue-minimisations  :  8400
 total energy-change (2. order) : 0.3154067E+04  (-0.2070460E+05)
 number of electron      74.0000000 magnetization      -0.0000000
 augmentation part       74.0000000 magnetization      -0.0000000

 Free energy of the ion-electron system (eV)
  alpha Z        PSCENC =       254.99681063
  Ewald energy   TEWEN  =     -4763.26635216
  -Hartree energ DENC   =     -2285.87815200
  -exchange      EXHF   =         0.00000000
  -V(xc)+E(xc)   XCENC  =       273.11167094
  PAW double counting   =      5768.44016720    -5907.03344719
  entropy T*S    EENTRO =         0.00000000
  eigenvalues    EBANDS =      2387.62238725
  atomic energy  EATOM  =      7426.07396366
  free energy    TOTEN  =      3154.06704834 eV

  energy without entropy =     3154.06704834  energy(sigma->0) =     3154.06704834
  exchange ACFDT corr.  =         0.00000000  see jH, gK, PRB 81, 115126

[...]

 BZINTS: Fermi energy: 20.487448; 74.000000 electrons
         Band energy:  50.310042;  BLOECHL correction: -1.006477
 BZINTS: Fermi energy: 20.487448; 74.000000 electrons
         Band energy:  50.310042;  BLOECHL correction: -1.006477

 eigenvalue-minimisations  : 10045
 total energy-change (2. order) :-0.2337312E+04  (-0.2042299E+04)
 number of electron      74.0000000 magnetization      -0.0000000
 augmentation part       74.0000000 magnetization      -0.0000000

[...]

 BZINTS: Fermi energy: 11.809050; 74.000000 electrons
         Band energy:-661.054811;  BLOECHL correction:  0.000000
 BZINTS: Fermi energy: 11.809050; 74.000000 electrons
         Band energy:-661.054811;  BLOECHL correction:  0.000000

[...]

 BZINTS: Fermi energy:  6.978150; 74.000000 electrons
         Band energy:-804.549772;  BLOECHL correction:  0.000000

[...]

 eigenvalue-minimisations  :     0
 total energy-change (2. order) : 0.1005431E+01  (-0.3471860E+02)
 number of electron      73.9999979 magnetization       0.0000000
 augmentation part       21.8379328 magnetization       0.0012852

[...]

----------------------------------------- Iteration    1(  29)  ---------------------------------------

[...]

 eigenvalue-minimisations  :     0
 total energy-change (2. order) :-0.9622237E-04  (-0.7776204E-04)
 number of electron      73.9999979 magnetization      -0.0000000
 augmentation part       21.9180611 magnetization       0.0000105

 Free energy of the ion-electron system (eV)
  alpha Z        PSCENC =       254.99681063
  Ewald energy   TEWEN  =     -4763.26635216
  -Hartree energ DENC   =     -2206.00989929
  -exchange      EXHF   =       229.20068947
  -V(xc)+E(xc)   XCENC  =       273.94481196
  PAW double counting   =      7642.20064214    -7796.25640593
  entropy T*S    EENTRO =         0.00000000
  eigenvalues    EBANDS =     -1161.07850425
  atomic energy  EATOM  =      7426.07396366
  free energy    TOTEN  =      -100.19424376 eV

  energy without entropy =     -100.19424376  energy(sigma->0) =     -100.19424376
  exchange ACFDT corr.  =         0.00000000  see jH, gK, PRB 81, 115126

  average scaling for gradient   0.6725

 average (electrostatic) potential at core
  the test charge radii are     0.7079  0.9577  0.7215
  (the norm of the test charge is              1.0000)
       1 -52.7257       2 -53.0824       3 -53.1165       4 -53.1166       5 -65.8272
       6 -65.8272       7 -64.2597       8 -64.2597       9 -64.2760      10 -64.2760
      11 -64.2760      12 -64.2760

 E-fermi :   2.0776     XC(G=0):  -9.0869     alpha+bet :-14.1626

 spin component 1

 k-point     1 :       0.0000    0.0000    0.0000
  band No.  band energies     occupation
      1     -51.7341      1.00000
      2     -51.7318      1.00000
      3     -51.7272      1.00000
      4     -47.1249      1.00000
      5     -47.1230      1.00000
      6     -47.0739      1.00000
      7     -43.3735      1.00000
      8     -43.3455      1.00000
      9     -43.3185      1.00000
     10     -42.9750      1.00000
     11     -17.3627      1.00000
     12     -15.8795      1.00000
     13     -15.7995      1.00000
     14     -15.7827      1.00000
     15     -15.7713      1.00000
     16     -15.7650      1.00000
     17      -3.7443      1.00000
     18      -3.3238      1.00000
     19      -3.3184      1.00000
     20      -2.5720      1.00000
     21      -2.0347      1.00000
     22      -2.0315      1.00000
     23      -1.8837      1.00000
     24      -1.8436      1.00000
     25      -1.0631      1.00000
     26      -1.0232      1.00000
     27      -0.7906      1.00000
     28      -0.5594      1.00000
     29       0.0632      1.00000
     30       0.2410      1.00000
     31       0.4691      1.00000
     32       0.5667      1.00000
     33       1.2851      1.00000
     34       1.3736      1.00000
     35       1.7954      1.00000
     36       1.9624      1.00000
     37       1.9695      1.00000
     38       6.0528      0.00000
     39       6.0649      0.00000
     40       6.8769      0.00000
     41       7.1537      0.00000
     42       7.1926      0.00000
     43       8.3189      0.00000
     44       8.3267      0.00000
     45      11.3652      0.00000
     46      12.8213      0.00000
     47      15.2366      0.00000
     48      15.6084      0.00000
     49      15.6469      0.00000
     50      15.7759      0.00000
     51      17.6102      0.00000
     52      17.8586      0.00000
     53      17.8918      0.00000
     54      18.4882      0.00000
     55      18.9431      0.00000
     56      20.0317      0.00000
     57      20.0684      0.00000
     58      20.1956      0.00000
     59      20.6111      0.00000
     60      21.0985      0.00000
     61      21.1919      0.00000
     62      21.4757      0.00000
     63      21.7685      0.00000
     64      21.8960      0.00000
     65      24.3303      0.00000
     66      25.8845      0.00000
     67      26.0332      0.00000
     68      26.2407      0.00000
     69      26.5344      0.00000
     70      27.2673      0.00000

[...]

 spin component 2

[...]

 k-point    24 :       0.5000    0.5000    0.5000
  band No.  band energies     occupation
      1     -51.7340      1.00000
      2     -51.7319      1.00000
      3     -51.7273      1.00000
      4     -47.1249      1.00000
      5     -47.1236      1.00000
      6     -47.0740      1.00000
      7     -43.3584      1.00000
      8     -43.3563      1.00000
      9     -43.3223      1.00000
     10     -42.9752      1.00000
     11     -16.6753      1.00000
     12     -16.2916      1.00000
     13     -16.0172      1.00000
     14     -15.9099      1.00000
     15     -15.8877      1.00000
     16     -15.7578      1.00000
     17      -3.6058      1.00000
     18      -3.3521      1.00000
     19      -2.8894      1.00000
     20      -2.3486      1.00000
     21      -2.2686      1.00000
     22      -2.0501      1.00000
     23      -1.9798      1.00000
     24      -1.5027      1.00000
     25      -1.4349      1.00000
     26      -0.9501      1.00000
     27      -0.4308      1.00000
     28       0.0240      1.00000
     29       0.2728      1.00000
     30       0.2808      1.00000
     31       0.6159      1.00000
     32       0.7908      1.00000
     33       0.9588      1.00000
     34       1.0908      1.00000
     35       1.3798      1.00000
     36       1.4222      1.00000
     37       1.6625      1.00000
     38       5.7175      0.00000
     39       5.8311      0.00000
     40       6.8922      0.00000
     41       6.9615      0.00000
     42       7.2260      0.00000
     43       8.0244      0.00000
     44       8.2131      0.00000
     45      14.1606      0.00000
     46      14.7726      0.00000
     47      14.9074      0.00000
     48      14.9136      0.00000
     49      15.6738      0.00000
     50      15.7877      0.00000
     51      17.6507      0.00000
     52      17.7994      0.00000
     53      17.9097      0.00000
     54      18.0959      0.00000
     55      18.6358      0.00000
     56      19.0845      0.00000
     57      19.3960      0.00000
     58      20.1637      0.00000
     59      20.7012      0.00000
     60      20.8160      0.00000
     61      20.9676      0.00000
     62      21.1729      0.00000
     63      21.6745      0.00000
     64      21.8251      0.00000
     65      22.8358      0.00000
     66      23.7479      0.00000
     67      24.0524      0.00000
     68      24.6298      0.00000
     69      25.5557      0.00000
     70      26.7401      0.00000

 soft charge-density along one line, spin component           1
         0         1         2         3         4         5         6         7         8         9
 total charge-density along one line

 soft charge-density along one line, spin component           2
         0         1         2         3         4         5         6         7         8         9
 total charge-density along one line

------------------------ aborting loop because EDIFF is reached ----------------------------------------

 total charge

# of ion     s       p       d       tot
  1        2.020   0.064   0.000   2.083
  2        2.016   0.054   0.000   2.070
  3        2.015   0.053   0.000   2.068
  4        2.015   0.053   0.000   2.068
  5        0.360   6.458   4.764  11.582
  6        0.360   6.458   4.764  11.582
  7        1.560   3.496   0.000   5.056
  8        1.560   3.496   0.000   5.056
  9        1.562   3.491   0.000   5.053
 10        1.563   3.490   0.000   5.053
 11        1.562   3.491   0.000   5.053
 12        1.563   3.490   0.000   5.053
tot       18.155  34.094   9.527  61.776

 magnetization (x)

[...]

 VOLUME and BASIS-vectors are now :
  energy-cutoff  :      600.00
  volume of cell :      103.07
      direct lattice vectors                 reciprocal lattice vectors
     4.983147038  0.001355973  0.000318052     0.200649528  0.115370897 -0.070867869
    -2.483828799  4.319994298  0.000318052    -0.000058458  0.231453393 -0.070867869
     0.847900148  1.466029206  4.787329897    -0.000013327 -0.000023042  0.208894123

  length of vectors
     4.983147232  4.983147232  5.078061031     0.242059769  0.242059769  0.208894124

 FORCES acting on ions:
    Electron-Ion                     Ewald-Force                    Non-Local-Force
   0.251E-05 0.980E-05 -.126E-05   -.905E-05 -.156E-04 0.537E-05   -.212E-21 -.424E-21 -.424E-21
   -.716E-05 -.115E-05 0.348E-05   0.153E-05 0.265E-05 -.549E-05   0.106E-21 -.635E-21 0.847E-21
   0.284E+02 -.164E+02 -.316E-04   -.276E+02 0.160E+02 0.113E-04   -.764E+00 0.442E+00 -.272E-13
   -.284E+02 0.164E+02 0.174E-04   0.276E+02 -.160E+02 0.113E-04   0.764E+00 -.442E+00 0.272E-13
   0.103E+02 -.596E+01 0.346E-05   -.100E+02 0.580E+01 -.468E-06   -.310E+00 0.180E+00 -.111E-13
   -.103E+02 0.596E+01 -.342E-05   0.100E+02 -.580E+01 -.468E-06   0.310E+00 -.180E+00 0.111E-13
   0.656E+02 0.113E+03 -.256E+03   -.698E+02 -.121E+03 0.268E+03   0.379E+01 0.655E+01 -.110E+02
   -.656E+02 -.113E+03 0.256E+03   0.698E+02 0.121E+03 -.268E+03   -.379E+01 -.655E+01 0.110E+02
   -.135E+03 0.189E+01 -.245E+03   0.144E+03 -.208E+01 0.258E+03   -.796E+01 0.174E+00 -.121E+02
   -.690E+02 0.116E+03 0.245E+03   0.735E+02 -.124E+03 -.258E+03   -.412E+01 0.681E+01 0.121E+02
   0.135E+03 -.189E+01 0.245E+03   -.144E+03 0.208E+01 -.258E+03   0.796E+01 -.174E+00 0.121E+02
   0.690E+02 -.116E+03 -.245E+03   -.735E+02 0.124E+03 0.258E+03   0.412E+01 -.681E+01 -.121E+02
   0.210E-04 0.222E-03 -.343E-03   0.284E-13 0.000E+00 -.568E-13   -.178E-14 0.888E-15 0.178E-14

 POSITION                                       TOTAL-FORCE (eV/Angst)
      1.24966      2.16068      0.00032        -0.000000      0.000000      0.000000
      0.42395      0.73301      2.39366        -0.000000      0.000000      0.000000
      2.88199      2.19480      2.39398         0.020658     -0.011948      0.000000
      0.46523      3.59258      2.39398        -0.020658      0.011948     -0.000000
     -1.23609      3.59834      0.00032         0.020103     -0.011627      0.000000
      3.73541      0.72301      0.00032        -0.020103      0.011627     -0.000000
      2.14599      3.71044      1.09667         0.194039      0.335496     -0.636187
      1.20123      2.07694      3.69130        -0.194039     -0.335496      0.636187
     -0.53152      2.16180      1.07494        -0.400737      0.007495     -0.646161
      1.20834      5.17004      3.71302        -0.206337      0.343616      0.646161
      3.87874      3.62558      3.71302         0.400737     -0.007495      0.646161
      2.13887      0.61734      1.07494         0.206337     -0.343616     -0.646161
    total drift:                                0.000021      0.000222     -0.000343

  FREE ENERGIE OF THE ION-ELECTRON SYSTEM (eV)
  free  energy   TOTEN  =      -100.19424376 eV

  energy  without entropy=     -100.19424376  energy(sigma->0) =     -100.19424376

 writing wavefunctions

 total charge

[...]

 magnetization (x)

# of ion     s       p       d       tot
  1       -0.000  -0.000   0.000  -0.000
  2       -0.000  -0.000   0.000  -0.000
  3        0.000   0.000   0.000   0.000
  4       -0.000  -0.000   0.000  -0.000
  5        0.013   0.029   2.973   3.014
  6       -0.013  -0.029  -2.973  -3.014
  7        0.000   0.001   0.000   0.001
  8       -0.000  -0.001   0.000  -0.001
  9       -0.000  -0.002   0.000  -0.002
 10       -0.000  -0.001   0.000  -0.001
 11        0.000   0.002   0.000   0.002
 12        0.000   0.001   0.000   0.001
tot       -0.000   0.000  -0.000   0.000

 BZINTS: Fermi energy:  2.059862; 74.000000 electrons
         Band energy:***********;  BLOECHL correction:  0.000000