 vasp.5.4.4.18Apr17-6-g9f103f2a35 (build Dec 07 2017 12:23:07) complex

 executed on     UA-Leibniz-2016b date 2018.11.16  19:08:06

 INCAR:
 POTCAR:    PAW_PBE Au 04Oct2007

 POTCAR:    PAW_PBE Au 04Oct2007
   VRHFIN =Au: s1d10

   TITEL  = PAW_PBE Au 04Oct2007
   POMASS =  196.966; ZVAL   =   11.000    mass and valenz
   ENMAX  =  229.943; ENMIN  =  172.457 eV

 Optimization of the real space projectors (new method)

 maximal supplied QI-value         = 15.12
 optimisation between [QCUT,QGAM] = [ 11.34, 22.83] = [ 36.00,145.93] Ry
 Optimized for a Real-space Cutoff    1.52 Angstroem

   l    n(q)    QCUT    max X(q) W(low)/X(q) W(high)/X(q)  e(spline)
   2      9    11.338    60.898    0.19E-03    0.40E-04    0.24E-06
   2      9    11.338    58.894    0.19E-03    0.40E-04    0.25E-06
   0     10    11.338   109.617    0.47E-04    0.50E-05    0.16E-06
   0     10    11.338    75.026    0.46E-04    0.49E-05    0.16E-06
   1     10    11.338    16.344    0.14E-04    0.87E-04    0.12E-06
   1     10    11.338    10.160    0.10E-04    0.70E-04    0.10E-06
  PAW_PBE Au 04Oct2007                  :

 POSCAR: Au4
  positions in direct lattice
 exchange correlation table for  LEXCH =        8
   RHO(1)=    0.500       N(1)  =     2000
   RHO(2)=  100.500       N(2)  =     4000

 ion  position               nearest neighbor table
   1  0.000  0.000  0.000-   2 2.94   3 2.94   4 2.94   3 2.94   4 2.94   2 2.94   4 2.94   4 2.94
                             2 2.94   3 2.94   3 2.94   2 2.94
   2  0.500  0.500  0.000-   1 2.94   3 2.94   4 2.94   3 2.94   4 2.94   1 2.94   3 2.94   3 2.94
                             1 2.94   4 2.94   4 2.94   1 2.94
   3  0.500  0.000  0.500-   1 2.94   2 2.94   4 2.94   1 2.94   2 2.94   2 2.94   4 2.94   2 2.94
                             1 2.94   4 2.94   1 2.94   4 2.94
   4  0.000  0.500  0.500-   1 2.94   2 2.94   3 2.94   1 2.94   2 2.94   1 2.94   3 2.94   1 2.94
                             2 2.94   3 2.94   2 2.94   3 2.94

  LATTYP: Found a simple cubic cell.
 ALAT       =     4.1525980000

  Lattice vectors:

 A1 = (   4.1525980000,   0.0000000000,   0.0000000000)
 A2 = (   0.0000000000,   4.1525980000,   0.0000000000)
 A3 = (   0.0000000000,   0.0000000000,   4.1525980000)

Analysis of symmetry for initial positions (statically):
 Subroutine PRICEL returns following result:

  LATTYP: Found a face centered cubic cell.
 ALAT       =     4.1525980000

[...]

   4 primitive cells build up your supercell.

 Routine SETGRP: Setting up the symmetry group for a
 simple cubic supercell.

 Subroutine GETGRP returns: Found 48 space group operations
 (whereof 48 operations were pure point group operations)
 out of a pool of 48 trial point group operations.

The static configuration has the point symmetry O_h .

Analysis of symmetry for dynamics (positions and initial velocities):
 Subroutine PRICEL returns following result:

[...]

The dynamic configuration has the point symmetry O_h .

Analysis of structural, dynamic, and magnetic symmetry:
 Subroutine PRICEL returns following result:

  LATTYP: Found a face centered cubic cell.
 ALAT       =     4.1525980000

  Lattice vectors:

 A1 = (   2.0762990000,   2.0762990000,   0.0000000000)
 A2 = (   2.0762990000,   0.0000000000,  -2.0762990000)
 A3 = (   0.0000000000,   2.0762990000,  -2.0762990000)

   4 primitive cells build up your supercell.

 Routine SETGRP: Setting up the symmetry group for a
 simple cubic supercell.

 Subroutine GETGRP returns: Found 48 space group operations
 (whereof 48 operations were pure point group operations)
 out of a pool of 48 trial point group operations.

The magnetic configuration has the point symmetry O_h .

 Subroutine INISYM returns: Found 48 space group operations
 (whereof 48 operations are pure point group operations),
 and found     4 'primitive' translations

 KPOINTS: Automatic kpoint scheme

Automatic generation of k-mesh.
Space group operators:
 irot       det(A)        alpha          n_x          n_y          n_z        tau_x        tau_y        tau_z
    1     1.000000     0.000000     1.000000     0.000000     0.000000     0.000000     0.000000     0.000000
    2    -1.000000     0.000000     1.000000     0.000000     0.000000     0.000000     0.000000     0.000000
    3     1.000000   120.000000    -0.577350    -0.577350    -0.577350     0.000000     0.000000     0.000000
    4    -1.000000   120.000000    -0.577350    -0.577350    -0.577350     0.000000     0.000000     0.000000
    5     1.000000   120.000000     0.577350     0.577350     0.577350     0.000000     0.000000     0.000000
    6    -1.000000   120.000000     0.577350     0.577350     0.577350     0.000000     0.000000     0.000000
    7     1.000000    90.000000     0.000000     0.000000    -1.000000     0.000000     0.000000     0.000000
    8    -1.000000    90.000000     0.000000     0.000000    -1.000000     0.000000     0.000000     0.000000
    9     1.000000   180.000000     0.000000     0.707107     0.707107     0.000000     0.000000     0.000000
   10    -1.000000   180.000000     0.000000     0.707107     0.707107     0.000000     0.000000     0.000000
   11     1.000000    90.000000     0.000000     1.000000     0.000000     0.000000     0.000000     0.000000
   12    -1.000000    90.000000     0.000000     1.000000     0.000000     0.000000     0.000000     0.000000
   13     1.000000   180.000000     0.000000     0.000000     1.000000     0.000000     0.000000     0.000000
   14    -1.000000   180.000000     0.000000     0.000000     1.000000     0.000000     0.000000     0.000000
   15     1.000000   120.000000    -0.577350     0.577350     0.577350     0.000000     0.000000     0.000000
   16    -1.000000   120.000000    -0.577350     0.577350     0.577350     0.000000     0.000000     0.000000
   17     1.000000   120.000000    -0.577350     0.577350    -0.577350     0.000000     0.000000     0.000000
   18    -1.000000   120.000000    -0.577350     0.577350    -0.577350     0.000000     0.000000     0.000000
   19     1.000000    90.000000     0.000000     0.000000     1.000000     0.000000     0.000000     0.000000
   20    -1.000000    90.000000     0.000000     0.000000     1.000000     0.000000     0.000000     0.000000
   21     1.000000    90.000000    -1.000000     0.000000     0.000000     0.000000     0.000000     0.000000
   22    -1.000000    90.000000    -1.000000     0.000000     0.000000     0.000000     0.000000     0.000000
   23     1.000000   180.000000     0.707107     0.000000     0.707107     0.000000     0.000000     0.000000
   24    -1.000000   180.000000     0.707107     0.000000     0.707107     0.000000     0.000000     0.000000
   25     1.000000   120.000000     0.577350    -0.577350     0.577350     0.000000     0.000000     0.000000
   26    -1.000000   120.000000     0.577350    -0.577350     0.577350     0.000000     0.000000     0.000000
   27     1.000000   120.000000    -0.577350    -0.577350     0.577350     0.000000     0.000000     0.000000
   28    -1.000000   120.000000    -0.577350    -0.577350     0.577350     0.000000     0.000000     0.000000
   29     1.000000   180.000000     1.000000     0.000000     0.000000     0.000000     0.000000     0.000000
   30    -1.000000   180.000000     1.000000     0.000000     0.000000     0.000000     0.000000     0.000000
   31     1.000000    90.000000     0.000000    -1.000000     0.000000     0.000000     0.000000     0.000000
   32    -1.000000    90.000000     0.000000    -1.000000     0.000000     0.000000     0.000000     0.000000
   33     1.000000   180.000000     0.707107     0.707107     0.000000     0.000000     0.000000     0.000000
   34    -1.000000   180.000000     0.707107     0.707107     0.000000     0.000000     0.000000     0.000000
   35     1.000000    90.000000     1.000000     0.000000     0.000000     0.000000     0.000000     0.000000
   36    -1.000000    90.000000     1.000000     0.000000     0.000000     0.000000     0.000000     0.000000
   37     1.000000   120.000000     0.577350    -0.577350    -0.577350     0.000000     0.000000     0.000000
   38    -1.000000   120.000000     0.577350    -0.577350    -0.577350     0.000000     0.000000     0.000000
   39     1.000000   180.000000     0.000000     1.000000     0.000000     0.000000     0.000000     0.000000
   40    -1.000000   180.000000     0.000000     1.000000     0.000000     0.000000     0.000000     0.000000
   41     1.000000   120.000000     0.577350     0.577350    -0.577350     0.000000     0.000000     0.000000
   42    -1.000000   120.000000     0.577350     0.577350    -0.577350     0.000000     0.000000     0.000000
   43     1.000000   180.000000     0.000000    -0.707107     0.707107     0.000000     0.000000     0.000000
   44    -1.000000   180.000000     0.000000    -0.707107     0.707107     0.000000     0.000000     0.000000
   45     1.000000   180.000000     0.707107    -0.707107     0.000000     0.000000     0.000000     0.000000
   46    -1.000000   180.000000     0.707107    -0.707107     0.000000     0.000000     0.000000     0.000000
   47     1.000000   180.000000     0.707107     0.000000    -0.707107     0.000000     0.000000     0.000000
   48    -1.000000   180.000000     0.707107     0.000000    -0.707107     0.000000     0.000000     0.000000

 Subroutine IBZKPT returns following result:

 Found    560 irreducible k-points:

 Following reciprocal coordinates:
            Coordinates               Weight
  0.000000  0.000000  0.000000      1.000000
  0.038462  0.000000  0.000000      6.000000
  0.076923  0.000000  0.000000      6.000000
  0.115385  0.000000  0.000000      6.000000
  0.153846  0.000000  0.000000      6.000000
  0.192308  0.000000  0.000000      6.000000
  0.230769  0.000000  0.000000      6.000000
  0.269231  0.000000  0.000000      6.000000
  0.307692  0.000000  0.000000      6.000000
  0.346154  0.000000  0.000000      6.000000
  0.384615  0.000000  0.000000      6.000000
  0.423077  0.000000  0.000000      6.000000
  0.461538  0.000000  0.000000      6.000000
  0.500000  0.000000  0.000000      3.000000
  0.038462  0.038462  0.000000     12.000000
  0.076923  0.038462  0.000000     24.000000
  0.115385  0.038462  0.000000     24.000000
  0.153846  0.038462  0.000000     24.000000
  0.192308  0.038462  0.000000     24.000000
  0.230769  0.038462  0.000000     24.000000
  0.269231  0.038462  0.000000     24.000000
  0.307692  0.038462  0.000000     24.000000
  0.346154  0.038462  0.000000     24.000000
  0.384615  0.038462  0.000000     24.000000
  0.423077  0.038462  0.000000     24.000000
  0.461538  0.038462  0.000000     24.000000
  0.500000  0.038462  0.000000     12.000000
  0.076923  0.076923  0.000000     12.000000
  0.115385  0.076923  0.000000     24.000000
  0.153846  0.076923  0.000000     24.000000
  0.192308  0.076923  0.000000     24.000000
  0.230769  0.076923  0.000000     24.000000
  0.269231  0.076923  0.000000     24.000000
  0.307692  0.076923  0.000000     24.000000
  0.346154  0.076923  0.000000     24.000000
  0.384615  0.076923  0.000000     24.000000
  0.423077  0.076923  0.000000     24.000000
[...]
   10.320540    1.280065    1.280065    1.280065    0.000000    0.000000    0.000000
   10.624086    1.372902    1.372902    1.372902    0.000000   -0.000000    0.000000
   10.927631    1.478693    1.478693    1.478693    0.000000    0.000000    0.000000
   11.231176    1.564080    1.564080    1.564080    0.000000   -0.000000    0.000000
   11.534722    1.574773    1.574773    1.574773    0.000000    0.000000    0.000000
   11.838267    1.477135    1.477135    1.477135   -0.000000   -0.000000   -0.000000
   12.141812    1.342283    1.342283    1.342283    0.000000    0.000000    0.000000
   12.445357    1.177932    1.177932    1.177932    0.000000    0.000000    0.000000
   12.748903    1.068671    1.068671    1.068671    0.000000    0.000000   -0.000000
   13.052448    1.024330    1.024330    1.024330    0.000000    0.000000   -0.000000
   13.355993    0.990703    0.990703    0.990703    0.000000    0.000000    0.000000
   13.659539    0.989871    0.989871    0.989871   -0.000000   -0.000000    0.000000
   13.963084    0.983465    0.983465    0.983465    0.000000    0.000000    0.000000
   14.266629    1.021310    1.021310    1.021310    0.000000    0.000000    0.000000
   14.570175    1.026856    1.026856    1.026856    0.000000    0.000000    0.000000
   14.873720    1.065899    1.065899    1.065899    0.000000    0.000000    0.000000
   15.177265    1.113100    1.113100    1.113100   -0.000000    0.000000   -0.000000
   15.480810    1.123382    1.123382    1.123382    0.000000    0.000000   -0.000000
   15.784356    1.174120    1.174120    1.174120    0.000000    0.000000    0.000000
   16.087901    1.166715    1.166715    1.166715   -0.000000   -0.000000    0.000000
   16.391446    1.178207    1.178207    1.178207   -0.000000   -0.000000    0.000000
   16.694992    1.238527    1.238527    1.238527    0.000000   -0.000000    0.000000
   16.998537    1.298694    1.298694    1.298694    0.000000   -0.000000    0.000000
   17.302082    1.441036    1.441036    1.441036    0.000000   -0.000000    0.000000
   17.605628    1.630988    1.630988    1.630988    0.000000   -0.000000    0.000000
   17.909173    1.867085    1.867085    1.867085    0.000000   -0.000000    0.000000
[...]
   56.155881    0.541828    0.541828    0.541828   -0.000000   -0.000000    0.000000
   56.459426    0.550319    0.550319    0.550319   -0.000000   -0.000000    0.000000
   56.762972    0.558509    0.558509    0.558509   -0.000000   -0.000000    0.000000
   57.066517    0.566414    0.566414    0.566414   -0.000000   -0.000000    0.000000
   57.370062    0.574050    0.574050    0.574050   -0.000000   -0.000000    0.000000
   57.673608    0.581433    0.581433    0.581433   -0.000000   -0.000000    0.000000
   57.977153    0.588575    0.588575    0.588575   -0.000000   -0.000000    0.000000
   58.280698    0.595489    0.595489    0.595489   -0.000000   -0.000000    0.000000
   58.584243    0.602188    0.602188    0.602188   -0.000000   -0.000000    0.000000
   58.887789    0.608681    0.608681    0.608681   -0.000000   -0.000000    0.000000
   59.191334    0.614978    0.614978    0.614978   -0.000000   -0.000000    0.000000
   59.494879    0.621090    0.621090    0.621090   -0.000000   -0.000000    0.000000
   59.798425    0.627024    0.627024    0.627024   -0.000000   -0.000000    0.000000
   60.101970    0.632789    0.632789    0.632789   -0.000000   -0.000000    0.000000
   60.405515    0.638393    0.638393    0.638393   -0.000000   -0.000000    0.000000

  frequency dependent IMAGINARY DIELECTRIC FUNCTION (independent particle, no local field effects) current-current (2nd set in vasprun.xml)
     E(ev)      X         Y         Z        XY        YZ        ZX
    0.000000   52.482010   52.482010   52.482010   -0.000000    0.000000   -0.000000
    0.303545    5.333615    5.333615    5.333615   -0.000000    0.000000   -0.000000
    0.607091    2.812142    2.812142    2.812142   -0.000000    0.000000   -0.000000
    0.910636    2.091576    2.091576    2.091576   -0.000000    0.000000   -0.000000
    1.214181    1.998307    1.998307    1.998307   -0.000000    0.000000   -0.000000
    1.517727    2.693230    2.693230    2.693230    0.000000    0.000000   -0.000000
    1.821272    4.474662    4.474662    4.474662   -0.000000    0.000000   -0.000000
    2.124817    6.562156    6.562156    6.562156   -0.000000   -0.000000    0.000000
    2.428362    7.849048    7.849048    7.849048   -0.000000   -0.000000   -0.000000
    2.731908    8.426165    8.426165    8.426165    0.000000    0.000000    0.000000
    3.035453    8.369582    8.369582    8.369582    0.000000    0.000000   -0.000000
    3.338998    7.752791    7.752791    7.752791   -0.000000   -0.000000   -0.000000
    3.642544    6.819677    6.819677    6.819677    0.000000   -0.000000   -0.000000
    3.946089    5.961173    5.961173    5.961173   -0.000000   -0.000000   -0.000000
    4.249634    5.345534    5.345534    5.345534   -0.000000   -0.000000    0.000000
    4.553180    4.898778    4.898778    4.898778    0.000000    0.000000   -0.000000
    4.856725    4.633985    4.633985    4.633985    0.000000    0.000000    0.000000
    5.160270    4.553500    4.553500    4.553500    0.000000    0.000000   -0.000000
    5.463815    4.593037    4.593037    4.593037    0.000000    0.000000    0.000000
    5.767361    4.734833    4.734833    4.734833   -0.000000    0.000000   -0.000000
    6.070906    4.996998    4.996998    4.996998   -0.000000   -0.000000   -0.000000
    6.374451    5.288036    5.288036    5.288036   -0.000000   -0.000000   -0.000000
    6.677997    5.353909    5.353909    5.353909   -0.000000   -0.000000   -0.000000
    6.981542    5.287588    5.287588    5.287588   -0.000000   -0.000000   -0.000000
    7.285087    5.083460    5.083460    5.083460   -0.000000   -0.000000   -0.000000
    7.588633    4.726576    4.726576    4.726576   -0.000000   -0.000000    0.000000
    7.892178    4.354330    4.354330    4.354330    0.000000    0.000000    0.000000
    8.195723    3.955054    3.955054    3.955054   -0.000000   -0.000000   -0.000000
    8.499268    3.568916    3.568916    3.568916   -0.000000    0.000000   -0.000000
    8.802814    3.163755    3.163755    3.163755    0.000000    0.000000    0.000000
    9.106359    2.823471    2.823471    2.823471   -0.000000    0.000000    0.000000
    9.409904    2.530046    2.530046    2.530046   -0.000000   -0.000000   -0.000000
    9.713450    2.359667    2.359667    2.359667    0.000000    0.000000   -0.000000
   10.016995    2.276979    2.276979    2.276979   -0.000000   -0.000000   -0.000000
   10.320540    2.259631    2.259631    2.259631   -0.000000   -0.000000   -0.000000
   10.624086    2.240946    2.240946    2.240946    0.000000    0.000000    0.000000
   10.927631    2.249859    2.249859    2.249859   -0.000000   -0.000000    0.000000
   11.231176    2.325549    2.325549    2.325549    0.000000   -0.000000    0.000000
   11.534722    2.450887    2.450887    2.450887   -0.000000   -0.000000    0.000000
   11.838267    2.551361    2.551361    2.551361    0.000000    0.000000   -0.000000
   12.141812    2.577763    2.577763    2.577763   -0.000000   -0.000000   -0.000000
   12.445357    2.540749    2.540749    2.540749    0.000000   -0.000000   -0.000000
   12.748903    2.412555    2.412555    2.412555    0.000000   -0.000000    0.000000
   13.052448    2.308619    2.308619    2.308619   -0.000000   -0.000000    0.000000
   13.355993    2.196891    2.196891    2.196891   -0.000000   -0.000000   -0.000000
   13.659539    2.112192    2.112192    2.112192   -0.000000   -0.000000    0.000000
   13.963084    2.014085    2.014085    2.014085    0.000000    0.000000   -0.000000
   14.266629    1.945333    1.945333    1.945333    0.000000    0.000000   -0.000000
   14.570175    1.889109    1.889109    1.889109    0.000000    0.000000   -0.000000
   14.873720    1.817775    1.817775    1.817775   -0.000000    0.000000   -0.000000
   15.177265    1.796199    1.796199    1.796199   -0.000000    0.000000   -0.000000
   15.480810    1.766530    1.766530    1.766530   -0.000000   -0.000000    0.000000
   15.784356    1.738069    1.738069    1.738069   -0.000000    0.000000   -0.000000
   16.087901    1.746681    1.746681    1.746681   -0.000000    0.000000   -0.000000
   16.391446    1.669336    1.669336    1.669336    0.000000    0.000000   -0.000000
   16.694992    1.634418    1.634418    1.634418    0.000000   -0.000000   -0.000000
   16.998537    1.580623    1.580623    1.580623   -0.000000   -0.000000    0.000000
   17.302082    1.544121    1.544121    1.544121   -0.000000   -0.000000    0.000000
   17.605628    1.585187    1.585187    1.585187   -0.000000   -0.000000    0.000000
   17.909173    1.750352    1.750352    1.750352   -0.000000   -0.000000    0.000000
[...]
   56.155881    0.001217    0.001217    0.001217   -0.000000   -0.000000   -0.000000
   56.459426    0.001153    0.001153    0.001153   -0.000000   -0.000000   -0.000000
   56.762972    0.001094    0.001094    0.001094   -0.000000   -0.000000   -0.000000
   57.066517    0.001039    0.001039    0.001039   -0.000000   -0.000000   -0.000000
   57.370062    0.000988    0.000988    0.000988   -0.000000   -0.000000   -0.000000
   57.673608    0.000940    0.000940    0.000940   -0.000000   -0.000000   -0.000000
   57.977153    0.000895    0.000895    0.000895   -0.000000   -0.000000   -0.000000
   58.280698    0.000853    0.000853    0.000853   -0.000000   -0.000000   -0.000000
   58.584243    0.000814    0.000814    0.000814   -0.000000   -0.000000   -0.000000
   58.887789    0.000777    0.000777    0.000777   -0.000000   -0.000000   -0.000000
   59.191334    0.000742    0.000742    0.000742   -0.000000   -0.000000   -0.000000
   59.494879    0.000710    0.000710    0.000710   -0.000000   -0.000000   -0.000000
   59.798425    0.000679    0.000679    0.000679   -0.000000   -0.000000   -0.000000
   60.101970    0.000650    0.000650    0.000650   -0.000000   -0.000000   -0.000000
   60.405515    0.000623    0.000623    0.000623   -0.000000   -0.000000   -0.000000

  frequency dependent      REAL DIELECTRIC FUNCTION (independent particle, no local field effects) current-current (2nd set in vasprun.xml)
     E(ev)        X           Y           Z          XY          YZ          ZX
    0.000000    8.936909    8.936909    8.936909   -0.000000    0.000000   -0.000000
    0.303545    8.999875    8.999875    8.999875   -0.000000    0.000000   -0.000000
    0.607091    9.204842    9.204842    9.204842   -0.000000    0.000000   -0.000000
    0.910636    9.604705    9.604705    9.604705   -0.000000    0.000000   -0.000000
    1.214181   10.307074   10.307074   10.307074   -0.000000    0.000000   -0.000000
    1.517727   11.287684   11.287684   11.287684   -0.000000    0.000000   -0.000000
    1.821272   11.829414   11.829414   11.829414   -0.000000   -0.000000   -0.000000
    2.124817   11.050251   11.050251   11.050251   -0.000000   -0.000000   -0.000000
    2.428362    9.403599    9.403599    9.403599    0.000000    0.000000   -0.000000
    2.731908    7.653312    7.653312    7.653312    0.000000    0.000000   -0.000000
    3.035453    5.899367    5.899367    5.899367    0.000000   -0.000000   -0.000000
    3.338998    4.477766    4.477766    4.477766   -0.000000   -0.000000    0.000000
    3.642544    3.593320    3.593320    3.593320   -0.000000   -0.000000    0.000000
    3.946089    3.237016    3.237016    3.237016   -0.000000   -0.000000    0.000000
    4.249634    3.150475    3.150475    3.150475    0.000000    0.000000    0.000000
    4.553180    3.172437    3.172437    3.172437    0.000000    0.000000    0.000000
    4.856725    3.294556    3.294556    3.294556    0.000000    0.000000   -0.000000
    5.160270    3.404532    3.404532    3.404532   -0.000000   -0.000000   -0.000000
    5.463815    3.462901    3.462901    3.462901   -0.000000   -0.000000   -0.000000
    5.767361    3.460369    3.460369    3.460369    0.000000   -0.000000    0.000000
    6.070906    3.350455    3.350455    3.350455   -0.000000   -0.000000   -0.000000
    6.374451    2.982361    2.982361    2.982361   -0.000000   -0.000000   -0.000000
    6.677997    2.457767    2.457767    2.457767   -0.000000   -0.000000    0.000000
    6.981542    1.970639    1.970639    1.970639    0.000000    0.000000    0.000000
    7.285087    1.450670    1.450670    1.450670    0.000000    0.000000    0.000000
    7.588633    1.070396    1.070396    1.070396    0.000000   -0.000000    0.000000
    7.892178    0.785466    0.785466    0.785466    0.000000    0.000000   -0.000000
    8.195723    0.615541    0.615541    0.615541    0.000000    0.000000    0.000000
    8.499268    0.491990    0.491990    0.491990    0.000000    0.000000    0.000000
    8.802814    0.491752    0.491752    0.491752    0.000000   -0.000000    0.000000
    9.106359    0.562453    0.562453    0.562453   -0.000000   -0.000000    0.000000
    9.409904    0.723709    0.723709    0.723709   -0.000000   -0.000000    0.000000
    9.713450    0.924096    0.924096    0.924096    0.000000    0.000000   -0.000000
   10.016995    1.107257    1.107257    1.107257    0.000000    0.000000    0.000000
   10.320540    1.236697    1.236697    1.236697   -0.000000    0.000000    0.000000
   10.624086    1.331278    1.331278    1.331278    0.000000    0.000000    0.000000
   10.927631    1.438404    1.438404    1.438404    0.000000    0.000000    0.000000
   11.231176    1.522336    1.522336    1.522336    0.000000   -0.000000    0.000000
   11.534722    1.529392    1.529392    1.529392   -0.000000    0.000000   -0.000000
   11.838267    1.429031    1.429031    1.429031   -0.000000   -0.000000   -0.000000
   12.141812    1.294607    1.294607    1.294607    0.000000    0.000000    0.000000
   12.445357    1.131528    1.131528    1.131528    0.000000    0.000000    0.000000
   12.748903    1.027838    1.027838    1.027838   -0.000000    0.000000    0.000000
   13.052448    0.986234    0.986234    0.986234   -0.000000   -0.000000   -0.000000
   13.355993    0.956170    0.956170    0.956170    0.000000    0.000000    0.000000
   13.659539    0.957099    0.957099    0.957099    0.000000    0.000000    0.000000
   13.963084    0.953712    0.953712    0.953712    0.000000    0.000000   -0.000000
   14.266629    0.993186    0.993186    0.993186    0.000000    0.000000    0.000000
   14.570175    0.999839    0.999839    0.999839   -0.000000    0.000000    0.000000
   14.873720    1.041403    1.041403    1.041403   -0.000000    0.000000    0.000000
   15.177265    1.088738    1.088738    1.088738   -0.000000    0.000000    0.000000
   15.480810    1.099851    1.099851    1.099851   -0.000000    0.000000    0.000000
   15.784356    1.151987    1.151987    1.151987    0.000000    0.000000    0.000000
   16.087901    1.143229    1.143229    1.143229    0.000000   -0.000000    0.000000
   16.391446    1.158018    1.158018    1.158018    0.000000    0.000000    0.000000
   16.694992    1.218831    1.218831    1.218831    0.000000   -0.000000    0.000000
   16.998537    1.280932    1.280932    1.280932    0.000000   -0.000000    0.000000
   17.302082    1.425325    1.425325    1.425325    0.000000   -0.000000    0.000000
   17.605628    1.615889    1.615889    1.615889    0.000000   -0.000000    0.000000
   17.909173    1.850879    1.850879    1.850879    0.000000   -0.000000    0.000000
[...]
   56.155881    0.541771    0.541771    0.541771    0.000000    0.000000    0.000000
   56.459426    0.550262    0.550262    0.550262    0.000000    0.000000    0.000000
   56.762972    0.558451    0.558451    0.558451    0.000000    0.000000    0.000000
   57.066517    0.566356    0.566356    0.566356    0.000000    0.000000    0.000000
   57.370062    0.573992    0.573992    0.573992    0.000000    0.000000    0.000000
   57.673608    0.581374    0.581374    0.581374    0.000000    0.000000    0.000000
   57.977153    0.588517    0.588517    0.588517    0.000000    0.000000    0.000000
   58.280698    0.595431    0.595431    0.595431    0.000000    0.000000    0.000000
   58.584243    0.602129    0.602129    0.602129    0.000000    0.000000    0.000000
   58.887789    0.608622    0.608622    0.608622    0.000000    0.000000    0.000000
   59.191334    0.614920    0.614920    0.614920    0.000000    0.000000    0.000000
   59.494879    0.621032    0.621032    0.621032    0.000000    0.000000    0.000000
   59.798425    0.626966    0.626966    0.626966    0.000000    0.000000    0.000000
   60.101970    0.632731    0.632731    0.632731    0.000000    0.000000    0.000000
   60.405515    0.638335    0.638335    0.638335    0.000000    0.000000    0.000000

 The outermost node in the dielectric function lies at epsilon=  48.0