 vasp.5.4.4.18Apr17-6-g9f103f2a35 (build Dec 07 2017 12:23:07) complex

 executed on     UA-Leibniz-2016b date 2018.11.07  15:58:04

 INCAR:
 POTCAR:    PAW_PBE Li_sv 10Sep2004
 POTCAR:    PAW_PBE Mn_pv 02Aug2007
 POTCAR:    PAW_PBE O 08Apr2002

 POTCAR:    PAW_PBE Li_sv 10Sep2004
   VRHFIN =Li: 1s2s2p

   TITEL  = PAW_PBE Li_sv 10Sep2004
   POMASS =    7.010; ZVAL   =    3.000    mass and valenz
   ENMAX  =  499.034; ENMIN  =  374.276 eV

 POTCAR:    PAW_PBE Mn_pv 02Aug2007
   VRHFIN =Mn: 3p4s3d

   TITEL  = PAW_PBE Mn_pv 02Aug2007
   POMASS =   54.938; ZVAL   =   13.000    mass and valenz
   ENMAX  =  269.864; ENMIN  =  202.398 eV

 POTCAR:    PAW_PBE O 08Apr2002
   VRHFIN =O: s2p4

   TITEL  = PAW_PBE O 08Apr2002
   POMASS =   16.000; ZVAL   =    6.000    mass and valenz
   ENMAX  =  400.000; ENMIN  =  300.000 eV

 Optimization of the real space projectors (new method)

 maximal supplied QI-value         = 22.11
 optimisation between [QCUT,QGAM] = [ 11.28, 22.77] = [ 35.61,145.23] Ry
 Optimized for a Real-space Cutoff    1.10 Angstroem

   l    n(q)    QCUT    max X(q) W(low)/X(q) W(high)/X(q)  e(spline)
   0      7    11.276    10.506    0.54E-04    0.58E-04    0.16E-07
   0      7    11.276     8.367    0.11E-03    0.14E-03    0.35E-07
   1      7    11.276     8.983    0.23E-03    0.43E-03    0.86E-07
 Optimization of the real space projectors (new method)

[...]

   l    n(q)    QCUT    max X(q) W(low)/X(q) W(high)/X(q)  e(spline)
   1     10    11.376     3.658    0.62E-04    0.11E-03    0.11E-06
   1     10    11.376     5.612    0.12E-03    0.20E-03    0.19E-06
   2      9    11.376    55.373    0.10E-03    0.85E-04    0.19E-06
   2      9    11.376    50.863    0.11E-03    0.88E-04    0.19E-06
   0     10    11.376    79.536    0.52E-04    0.21E-04    0.79E-07
   0     10    11.376    38.668    0.45E-04    0.19E-04    0.74E-07
 Optimization of the real space projectors (new method)

 maximal supplied QI-value         = 24.76
 optimisation between [QCUT,QGAM] = [ 11.39, 22.77] = [ 36.31,145.25] Ry
 Optimized for a Real-space Cutoff    1.10 Angstroem

   l    n(q)    QCUT    max X(q) W(low)/X(q) W(high)/X(q)  e(spline)
   0      7    11.387    20.381    0.22E-03    0.48E-03    0.18E-06
   0      7    11.387    15.268    0.22E-03    0.52E-03    0.19E-06
   1      7    11.387     5.964    0.22E-03    0.73E-03    0.24E-06
   1      7    11.387     5.382    0.19E-03    0.60E-03    0.21E-06
  PAW_PBE Li_sv 10Sep2004               :
  PAW_PBE Mn_pv 02Aug2007               :
  PAW_PBE O 08Apr2002                   :

 POSCAR: Li8 Mn16 O48
  positions in direct lattice
 exchange correlation table for  LEXCH =        8
   RHO(1)=    0.500       N(1)  =     2000
   RHO(2)=  100.500       N(2)  =     4000

 ion  position               nearest neighbor table
   1  0.999  1.000  1.000-  31 2.05  58 2.05  54 2.06  33 2.08  68 2.09  41 2.09
   2  0.998  0.996  0.499-  57 2.05  32 2.05  53 2.07  67 2.07  34 2.07  42 2.08
   3  0.004  0.500  1.000-  60 2.03  66 2.05  43 2.06  29 2.07  35 2.10  56 2.11
   4  0.996  0.500  0.500-  44 2.03  30 2.05  59 2.06  65 2.07  55 2.10  36 2.11
   5  0.499  0.996  0.001-  45 2.05  72 2.05  37 2.07  27 2.07  50 2.07  62 2.08
   6  0.501  0.000  0.500-  71 2.05  46 2.05  38 2.06  49 2.08  28 2.09  61 2.09
   7  0.511  0.510  0.993-  64 1.97  39 2.05  52 2.06  47 2.07  70 2.08  25 2.10
   8  0.499  0.510  0.507-  48 1.97  51 2.05  40 2.06  63 2.07  26 2.08  69 2.10
   9  0.166  0.338  0.269-  65 1.85  51 1.88  35 1.88  57 1.90  41 1.93  25 2.20  19 2.85  21 2.90
                            17 3.02
  10  0.168  0.332  0.749-  58 1.89  66 1.90  42 1.91  36 1.91  52 1.91  26 1.92  18 2.88  22 2.89
                            20 2.89
  11  0.162  0.825  0.250-  59 1.87  43 1.87  67 1.89  27 1.89  33 1.93  49 1.93  17 2.79  23 2.85
                            19 2.85
  12  0.165  0.830  0.750-  68 1.89  28 1.89  44 1.90  60 1.90  34 1.91  50 1.91  24 2.88  20 2.88
                            18 2.89
  13  0.672  0.338  0.231-  29 1.85  39 1.88  55 1.88  45 1.90  61 1.93  69 2.20  23 2.85  21 2.90
                            17 3.02
  14  0.665  0.332  0.751-  46 1.89  30 1.90  56 1.91  62 1.91  40 1.91  70 1.92  18 2.88  22 2.89
                            24 2.89
  15  0.667  0.834  0.250-  47 1.89  63 1.90  37 1.90  53 1.90  31 1.90  71 1.90  21 2.86  23 2.88
                            19 2.88
  16  0.668  0.835  0.750-  48 1.89  64 1.89  54 1.90  38 1.90  72 1.91  32 1.91  22 2.88  20 2.89
                            24 2.89
  17  0.324  0.147  0.250-  49 1.83  33 1.83  45 1.91  57 1.91  25 1.96  69 1.96  11 2.79  13 3.02
                             9 3.02
  18  0.332  0.163  0.750-  46 1.89  58 1.89  70 1.90  26 1.90  50 1.91  34 1.91  14 2.88  10 2.88
                            12 2.89
  19  0.334  0.667  0.255-  71 1.89  27 1.90  59 1.90  47 1.90  35 1.90  51 1.90   9 2.85  11 2.85
                            15 2.88
  20  0.334  0.666  0.754-  48 1.89  28 1.90  72 1.90  60 1.90  36 1.90  52 1.92  12 2.88  16 2.89
                            10 2.89
  21  0.833  0.165  0.250-  53 1.89  37 1.89  29 1.91  65 1.92  41 1.92  61 1.92  15 2.86   9 2.90
                            13 2.90
  22  0.834  0.168  0.750-  54 1.90  38 1.90  66 1.90  30 1.90  62 1.90  42 1.91  16 2.88  10 2.89
                            14 2.89
  23  0.833  0.667  0.245-  31 1.89  67 1.90  43 1.90  63 1.90  55 1.90  39 1.90  13 2.85  11 2.85
                            15 2.88
  24  0.832  0.666  0.746-  64 1.89  68 1.90  32 1.90  44 1.90  56 1.90  40 1.92  12 2.88  16 2.89
                            14 2.89
  25  0.383  0.357  0.181-  69 1.46  17 1.96   7 2.10   9 2.20
  26  0.325  0.321  0.626-  18 1.90  10 1.92   8 2.08
  27  0.319  0.817  0.127-  11 1.89  19 1.90   5 2.07
  28  0.322  0.820  0.630-  12 1.89  20 1.90   6 2.09
  29  0.821  0.318  0.120-  13 1.85  21 1.91   3 2.07
  30  0.821  0.323  0.629-  14 1.90  22 1.90   4 2.05
  31  0.822  0.823  0.126-  23 1.89  15 1.90   1 2.05
  32  0.820  0.821  0.623-  24 1.90  16 1.91   2 2.05
  33  0.177  0.994  0.122-  17 1.83  11 1.93   1 2.08
  34  0.177  0.997  0.626-  12 1.91  18 1.91   2 2.07
  35  0.182  0.497  0.133-   9 1.88  19 1.90   3 2.10
  36  0.180  0.501  0.628-  20 1.90  10 1.91   4 2.11
  37  0.680  0.001  0.126-  21 1.89  15 1.90   5 2.07
  38  0.679  0.002  0.627-  22 1.90  16 1.90   6 2.06
  39  0.691  0.505  0.108-  13 1.88  23 1.90   7 2.05
  40  0.674  0.497  0.625-  14 1.91  24 1.92   8 2.06
  41  0.007  0.182  0.133-  21 1.92   9 1.93   1 2.09
  42  0.999  0.177  0.626-  22 1.91  10 1.91   2 2.08
  43  0.999  0.676  0.125-  11 1.87  23 1.90   3 2.06
  44  0.999  0.677  0.625-  24 1.90  12 1.90   4 2.03
  45  0.498  0.171  0.130-  13 1.90  17 1.91   5 2.05
  46  0.500  0.172  0.636-  14 1.89  18 1.89   6 2.05
  47  0.500  0.678  0.130-  15 1.89  19 1.90   7 2.07
  48  0.501  0.681  0.630-  16 1.89  20 1.89   8 1.97
  49  0.316  0.994  0.378-  17 1.83  11 1.93   6 2.08
  50  0.319  0.997  0.874-  12 1.91  18 1.91   5 2.07
  51  0.314  0.505  0.392-   9 1.88  19 1.90   8 2.05
  52  0.323  0.496  0.875-  10 1.91  20 1.92   7 2.06
  53  0.820  0.001  0.374-  21 1.89  15 1.90   2 2.07
  54  0.822  0.002  0.873-  22 1.90  16 1.90   1 2.06
  55  0.815  0.497  0.367-  13 1.88  23 1.90   4 2.10
  56  0.821  0.501  0.872-  24 1.90  14 1.91   3 2.11
  57  0.173  0.171  0.370-   9 1.90  17 1.91   2 2.05
  58  0.172  0.172  0.864-  10 1.89  18 1.89   1 2.05
  59  0.177  0.676  0.375-  11 1.87  19 1.90   4 2.06
  60  0.178  0.677  0.875-  20 1.90  12 1.90   3 2.03
  61  0.675  0.182  0.367-  21 1.92  13 1.93   6 2.09
  62  0.678  0.177  0.874-  22 1.90  14 1.91   5 2.08
  63  0.678  0.678  0.370-  15 1.90  23 1.90   8 2.07
  64  0.680  0.681  0.870-  16 1.89  24 1.89   7 1.97
  65  0.997  0.318  0.380-   9 1.85  21 1.92   4 2.07
  66  0.002  0.323  0.871-  10 1.90  22 1.90   3 2.05
  67  0.998  0.817  0.372-  11 1.89  23 1.90   2 2.07
  68  0.998  0.820  0.870-  12 1.89  24 1.90   1 2.09
  69  0.474  0.357  0.319-  25 1.46  17 1.96   8 2.10  13 2.20
  70  0.496  0.321  0.874-  18 1.90  14 1.92   7 2.08
  71  0.501  0.824  0.374-  19 1.89  15 1.90   6 2.05
  72  0.501  0.821  0.876-  20 1.90  16 1.91   5 2.05

  LATTYP: Found a hexagonal cell.
 ALAT       =     9.9963163228
 C/A-ratio  =     0.8228598387

  Lattice vectors:

 A1 = (   9.9963160000,   0.0000090000,   0.0017840000)
 A2 = (  -4.9981650000,   8.6570590000,  -0.0022840000)
 A3 = (  -0.0014680000,   0.0013220000,   8.2255670000)

Analysis of symmetry for initial positions (statically):
 Subroutine PRICEL returns:
 Original cell was already a primitive cell.

 Routine SETGRP: Setting up the symmetry group for a
 hexagonal supercell.

 Subroutine GETGRP returns: Found  1 space group operations
 (whereof  1 operations were pure point group operations)
 out of a pool of 24 trial point group operations.

The static configuration has the point symmetry C_1 .

Analysis of symmetry for dynamics (positions and initial velocities):
 Subroutine PRICEL returns:
 Original cell was already a primitive cell.

[...]

The dynamic configuration has the point symmetry C_1 .

Analysis of structural, dynamic, and magnetic symmetry:
 Subroutine PRICEL returns:
 Original cell was already a primitive cell.

 Routine SETGRP: Setting up the symmetry group for a
 hexagonal supercell.

 Subroutine GETGRP returns: Found  1 space group operations
 (whereof  1 operations were pure point group operations)
 out of a pool of 24 trial point group operations.

The magnetic configuration has the point symmetry C_1 .

 Subroutine INISYM returns: Found  1 space group operations
 (whereof  1 operations are pure point group operations),
 and found     1 'primitive' translations

 KPOINTS: pymatgen 4.7.6+ generated KPOINTS with g

Automatic generation of k-mesh.
Space group operators:
 irot       det(A)        alpha          n_x          n_y          n_z        tau_x        tau_y        tau_z
    1     1.000000     0.000001     1.000000     0.000000     0.000000     0.000000     0.000000     0.000000

 Subroutine IBZKPT returns following result:

 Found     19 irreducible k-points:

 Following reciprocal coordinates:
            Coordinates               Weight
  0.000000  0.000000  0.000000      1.000000
  0.333333 -0.000000 -0.000000      2.000000
 -0.000000  0.333333  0.000000      2.000000
  0.333333  0.333333  0.000000      2.000000
 -0.333333  0.333333  0.000000      2.000000
 -0.000000 -0.000000  0.250000      2.000000
  0.333333 -0.000000  0.250000      2.000000
 -0.333333  0.000000  0.250000      2.000000
 -0.000000  0.333333  0.250000      2.000000
  0.333333  0.333333  0.250000      2.000000
 -0.333333  0.333333  0.250000      2.000000
 -0.000000 -0.333333  0.250000      2.000000
  0.333333 -0.333333  0.250000      2.000000
 -0.333333 -0.333333  0.250000      2.000000
 -0.000000 -0.000000  0.500000      1.000000
  0.333333 -0.000000  0.500000      2.000000
 -0.000000  0.333333  0.500000      2.000000
  0.333333  0.333333  0.500000      2.000000
 -0.333333  0.333333  0.500000      2.000000

 Following cartesian coordinates:
            Coordinates               Weight
[...]
   -.845E+00 0.157E+02 -.339E+02   0.809E+00 -.154E+02 0.338E+02   0.230E-01 -.276E+00 0.155E+00   -.194E-02 0.170E-02 0.630E-04
   0.118E+00 -.212E+02 0.349E-02   -.119E+00 0.206E+02 -.383E-02   0.595E-03 0.538E+00 0.770E-03   -.158E-03 0.114E-02 0.159E-03
   0.596E-01 -.131E+02 0.126E+00   -.630E-01 0.133E+02 -.125E+00   0.828E-03 -.156E+00 -.296E-02   -.111E-03 0.154E-03 -.603E-04
   0.562E+01 -.545E+01 -.258E+02   -.549E+01 0.557E+01 0.259E+02   -.977E-01 -.109E+00 -.808E-01   -.651E-03 -.190E-02 -.650E-03
   0.903E+00 0.157E+02 0.339E+02   -.870E+00 -.155E+02 -.338E+02   -.245E-01 -.277E+00 -.155E+00   0.190E-02 0.143E-02 -.210E-03
   0.587E+02 -.148E+03 0.233E+03   -.711E+02 0.159E+03 -.262E+03   0.124E+02 -.112E+02 0.286E+02   0.192E-02 -.799E-02 0.263E-02
   -.986E+02 -.123E+03 0.193E+03   0.104E+03 0.133E+03 -.208E+03   -.572E+01 -.984E+01 0.152E+02   0.117E-02 -.870E-03 -.202E-02
   -.811E+02 -.137E+03 0.208E+03   0.868E+02 0.148E+03 -.224E+03   -.566E+01 -.104E+02 0.159E+02   -.503E-03 0.178E-02 -.595E-03
   -.794E+02 -.145E+03 0.200E+03   0.855E+02 0.156E+03 -.216E+03   -.606E+01 -.106E+02 0.156E+02   -.123E-02 0.113E-02 0.251E-03
   -.110E+03 -.116E+03 0.191E+03   0.119E+03 0.125E+03 -.208E+03   -.858E+01 -.865E+01 0.164E+02   -.738E-03 -.736E-04 0.699E-03
   -.631E+02 -.132E+03 0.214E+03   0.687E+02 0.142E+03 -.229E+03   -.563E+01 -.999E+01 0.154E+02   -.259E-04 0.381E-03 -.708E-03
   -.779E+02 -.153E+03 0.200E+03   0.834E+02 0.164E+03 -.216E+03   -.551E+01 -.105E+02 0.152E+02   0.627E-03 0.338E-03 -.447E-03
   -.765E+02 -.132E+03 0.202E+03   0.821E+02 0.142E+03 -.217E+03   -.558E+01 -.101E+02 0.155E+02   0.116E-02 0.273E-03 -.357E-03
   0.167E+03 -.184E+02 0.220E+03   -.179E+03 0.157E+02 -.237E+03   0.120E+02 0.269E+01 0.170E+02   0.383E-02 0.807E-02 0.481E-02
   0.149E+03 -.131E+02 0.200E+03   -.161E+03 0.133E+02 -.215E+03   0.118E+02 -.179E+00 0.151E+02   0.854E-03 0.276E-03 -.992E-03
   0.136E+03 0.272E+02 0.233E+03   -.147E+03 -.271E+02 -.250E+03   0.115E+02 -.991E-01 0.168E+02   0.721E-03 -.901E-03 0.529E-03
   0.165E+03 0.356E+01 0.176E+03   -.178E+03 -.334E+01 -.190E+03   0.127E+02 -.199E+00 0.146E+02   -.339E-03 0.361E-03 -.699E-03
   0.152E+03 -.380E+01 0.202E+03   -.163E+03 0.363E+01 -.218E+03   0.117E+02 0.165E+00 0.159E+02   -.719E-03 0.812E-03 0.136E-03
   0.161E+03 -.838E+01 0.205E+03   -.173E+03 0.839E+01 -.220E+03   0.118E+02 0.807E-02 0.155E+02   -.838E-03 0.279E-03 -.527E-03
   0.130E+03 -.557E+01 0.202E+03   -.141E+03 0.634E+01 -.218E+03   0.110E+02 -.792E+00 0.162E+02   -.740E-03 -.182E-02 0.601E-03
   0.152E+03 0.258E+02 0.217E+03   -.163E+03 -.255E+02 -.232E+03   0.111E+02 -.274E+00 0.148E+02   -.679E-03 -.593E-03 -.781E-03
   -.109E+03 0.113E+03 0.214E+03   0.115E+03 -.122E+03 -.228E+03   -.633E+01 0.912E+01 0.147E+02   0.172E-02 0.335E-03 0.116E-02
   -.770E+02 0.136E+03 0.191E+03   0.829E+02 -.147E+03 -.206E+03   -.590E+01 0.104E+02 0.151E+02   0.825E-03 -.431E-03 -.928E-03
   -.826E+02 0.137E+03 0.206E+03   0.877E+02 -.148E+03 -.222E+03   -.507E+01 0.110E+02 0.162E+02   0.161E-04 -.192E-03 -.962E-03
   -.750E+02 0.139E+03 0.200E+03   0.810E+02 -.149E+03 -.216E+03   -.597E+01 0.996E+01 0.153E+02   0.782E-03 0.882E-03 0.436E-03
   -.709E+02 0.143E+03 0.169E+03   0.769E+02 -.153E+03 -.183E+03   -.599E+01 0.980E+01 0.141E+02   -.789E-02 -.383E-03 0.490E-02
   -.788E+02 0.125E+03 0.234E+03   0.846E+02 -.135E+03 -.250E+03   -.573E+01 0.978E+01 0.159E+02   -.163E-02 -.840E-03 -.143E-02
   -.649E+02 0.135E+03 0.211E+03   0.705E+02 -.146E+03 -.227E+03   -.553E+01 0.107E+02 0.152E+02   -.165E-03 -.122E-02 -.105E-03
   -.785E+02 0.129E+03 0.194E+03   0.840E+02 -.139E+03 -.210E+03   -.544E+01 0.954E+01 0.152E+02   -.270E-04 -.709E-03 -.655E-03
   -.168E+03 -.183E+02 -.220E+03   0.180E+03 0.156E+02 0.237E+03   -.120E+02 0.270E+01 -.170E+02   -.360E-02 0.821E-02 -.459E-02
   -.149E+03 -.131E+02 -.200E+03   0.161E+03 0.133E+02 0.215E+03   -.118E+02 -.184E+00 -.151E+02   -.464E-03 0.295E-03 0.718E-03
   -.130E+03 -.578E+01 -.202E+03   0.141E+03 0.656E+01 0.218E+03   -.110E+02 -.797E+00 -.161E+02   0.734E-03 -.163E-02 -.716E-03
   -.152E+03 0.256E+02 -.217E+03   0.164E+03 -.254E+02 0.232E+03   -.111E+02 -.278E+00 -.148E+02   0.768E-03 -.441E-03 0.792E-03
   -.152E+03 -.383E+01 -.202E+03   0.163E+03 0.367E+01 0.218E+03   -.117E+02 0.161E+00 -.159E+02   0.620E-03 0.804E-03 -.457E-04
   -.161E+03 -.841E+01 -.205E+03   0.173E+03 0.841E+01 0.221E+03   -.118E+02 0.490E-02 -.155E+02   0.636E-03 0.210E-03 0.449E-03
   -.136E+03 0.272E+02 -.233E+03   0.148E+03 -.271E+02 0.250E+03   -.115E+02 -.105E+00 -.168E+02   -.645E-03 -.118E-02 -.292E-03
   -.165E+03 0.361E+01 -.176E+03   0.177E+03 -.339E+01 0.190E+03   -.127E+02 -.205E+00 -.146E+02   0.315E-03 0.382E-03 0.555E-03
   0.708E+02 0.143E+03 -.169E+03   -.768E+02 -.153E+03 0.183E+03   0.598E+01 0.981E+01 -.141E+02   0.800E-02 -.302E-03 -.475E-02
   0.787E+02 0.125E+03 -.234E+03   -.844E+02 -.135E+03 0.250E+03   0.572E+01 0.978E+01 -.159E+02   0.171E-02 -.798E-03 0.122E-02
   0.823E+02 0.137E+03 -.206E+03   -.874E+02 -.148E+03 0.222E+03   0.507E+01 0.110E+02 -.162E+02   0.249E-03 -.100E-03 0.858E-03
   0.751E+02 0.139E+03 -.200E+03   -.811E+02 -.149E+03 0.216E+03   0.597E+01 0.996E+01 -.152E+02   -.893E-03 0.938E-03 -.393E-03
   0.109E+03 0.113E+03 -.214E+03   -.115E+03 -.122E+03 0.228E+03   0.632E+01 0.911E+01 -.147E+02   -.193E-02 0.306E-03 -.959E-03
   0.771E+02 0.136E+03 -.191E+03   -.830E+02 -.147E+03 0.206E+03   0.590E+01 0.104E+02 -.151E+02   -.104E-02 -.403E-03 0.690E-03
   0.652E+02 0.135E+03 -.211E+03   -.708E+02 -.146E+03 0.227E+03   0.554E+01 0.107E+02 -.152E+02   -.101E-03 -.123E-02 0.322E-03
   0.784E+02 0.129E+03 -.194E+03   -.838E+02 -.139E+03 0.210E+03   0.543E+01 0.953E+01 -.152E+02   0.118E-03 -.724E-03 0.495E-03
   0.111E+03 -.117E+03 -.191E+03   -.119E+03 0.125E+03 0.208E+03   0.859E+01 -.865E+01 -.164E+02   0.688E-03 -.878E-04 -.663E-03
   0.631E+02 -.133E+03 -.214E+03   -.688E+02 0.143E+03 0.229E+03   0.563E+01 -.999E+01 -.154E+02   -.264E-03 0.468E-03 0.675E-03
   0.810E+02 -.137E+03 -.208E+03   -.868E+02 0.148E+03 0.224E+03   0.567E+01 -.104E+02 -.159E+02   0.663E-03 0.190E-02 0.790E-03
   0.795E+02 -.145E+03 -.200E+03   -.856E+02 0.156E+03 0.216E+03   0.606E+01 -.106E+02 -.156E+02   0.122E-02 0.769E-03 -.400E-03
   -.585E+02 -.148E+03 -.233E+03   0.709E+02 0.159E+03 0.262E+03   -.124E+02 -.112E+02 -.286E+02   -.187E-02 -.807E-02 -.240E-02
   0.985E+02 -.123E+03 -.193E+03   -.104E+03 0.133E+03 0.208E+03   0.572E+01 -.985E+01 -.152E+02   -.830E-03 -.930E-03 0.167E-02
   0.779E+02 -.153E+03 -.200E+03   -.834E+02 0.164E+03 0.215E+03   0.550E+01 -.105E+02 -.152E+02   -.824E-03 0.214E-03 0.393E-03
   0.766E+02 -.132E+03 -.202E+03   -.822E+02 0.143E+03 0.217E+03   0.559E+01 -.101E+02 -.155E+02   -.117E-02 0.418E-03 0.367E-03
   -.161E-01 -.611E+01 -.291E-01   -.895E-12 0.284E-13 0.134E-11   0.138E-01 0.611E+01 0.289E-01   0.130E-02 0.122E-02 -.784E-03

 POSITION                                       TOTAL-FORCE (eV/Angst)
      4.98703      8.65825      8.22208        -0.008780     -0.005710     -0.001161
      4.99348      8.62667      4.10120        -0.002241      0.002295     -0.000809
     -2.45887      4.32633      8.22154        -0.004687      0.005898     -0.002148
      7.45467      4.32563      4.11620         0.004777      0.006197      0.002605
      0.00388      8.62606      0.00972         0.001994      0.001774      0.000865
      5.00702      0.00068      4.11639         0.008324     -0.005472      0.001690
      2.55593      4.42030      8.17009         0.001474      0.008994      0.005618
      2.43984      4.41972      4.16760        -0.000077      0.008001     -0.004969
     -0.02718      2.92815      2.20968        -0.020777      0.006118     -0.027026
      0.01346      2.87700      6.15751        -0.006777      0.018894     -0.014532
     -2.49977      7.14167      2.05464         0.001639      0.025169     -0.000365
     -2.49991      7.18505      6.16735         0.000766     -0.005301     -0.000475
      5.02437      2.92820      1.90325         0.026641      0.003067      0.028161
      4.98240      2.87718      6.18103         0.007792      0.020357      0.013418
      2.49873      7.22226      2.05577         0.000028      0.002031      0.001665
      2.49794      7.23315      6.16857         0.000549      0.000630     -0.000721
      2.49870      1.27574      2.05671        -0.003474      0.026286     -0.001536
      2.49809      1.41455      6.16928        -0.002876     -0.000191      0.000779
      0.00647      5.77765      2.09475        -0.031808      0.003654     -0.005822
      0.01091      5.76939      6.19785        -0.014221     -0.008766      0.024461
      7.49692      1.42939      2.05752        -0.000872      0.013332      0.000605
      7.49617      1.45126      6.17035        -0.002676      0.006939     -0.001125
      4.99079      5.77765      2.01719         0.032150      0.002143      0.006512
      4.98543      5.76986      6.13919         0.010115     -0.010033     -0.023191
      2.04456      3.09318      1.48753        -0.016796     -0.009667     -0.038714
      1.64138      2.77582      5.15098        -0.014541     -0.024992      0.010843
     -0.89751      7.07310      1.04730         0.055274      0.009211     -0.019829
     -0.88347      7.10116      5.18342         0.019496      0.005781     -0.052135
      6.62015      2.75549      0.99019         0.000826     -0.002646      0.014738
      6.59080      2.79439      5.17412         0.017932     -0.002500     -0.003311
      4.10447      7.12916      1.03667        -0.010724      0.048651     -0.036492
      4.09021      7.10493      5.12814         0.007491      0.001052      0.015921
     -3.19291      8.60307      1.00425         0.016698      0.009280      0.024416
     -3.21168      8.62791      5.14604         0.017648     -0.009140     -0.016133
     -0.66536      4.30448      1.09548         0.020144     -0.002674      0.013671
     -0.71034      4.33778      5.16882         0.019476      0.013303     -0.007489
      6.79785      0.00508      1.03360         0.006736      0.002903      0.006478
      6.78038      0.01445      5.15502         0.009910      0.012182     -0.002340
      4.38169      4.37099      0.88886         0.028045     -0.022728     -0.032646
      4.25123      4.29928      5.13804        -0.022567     -0.041922     -0.000450
     -0.83744      1.57434      1.09755         0.037938      0.027736      0.028069
      9.10346      1.53629      5.15129        -0.004244     -0.000926     -0.014904
      6.61114      5.85272      1.02746         0.019888      0.000016      0.007177
      6.59818      5.85957      5.13989        -0.015769     -0.009567     -0.001168
      4.11937      1.48144      1.06933        -0.006944     -0.026108     -0.007415
      4.13780      1.48623      5.22873         0.007326     -0.043808     -0.007097
      1.60604      5.87153      1.07196        -0.013802     -0.000948     -0.071313
      1.60210      5.89254      5.17895         0.014003      0.007666     -0.040384
     -1.80660      8.60340      3.10474        -0.012395      0.005848     -0.022223
     -1.78835      8.62830      7.18826        -0.017330     -0.010327      0.016421
      0.61633      4.37115      3.22387        -0.036986     -0.020629      0.024642
      0.74461      4.29933      7.19968         0.025751     -0.041099      0.003688
      8.19602      0.00558      3.08181        -0.007569      0.001299     -0.004753
      8.21124      0.01485      7.18618        -0.005113      0.011296      0.004401
      5.66321      4.30486      3.01671        -0.021172     -0.003071     -0.011202
      5.70607      4.33862      7.16893        -0.016246      0.010083      0.008184
      0.87757      1.48150      3.04386         0.011007     -0.024083      0.006326
      0.85817      1.48614      7.11021        -0.006171     -0.041766      0.003157
     -1.61419      5.85366      3.08454        -0.014832     -0.003848     -0.008376
     -1.60193      5.85961      7.19694         0.013520     -0.009702      0.002615
      5.83486      1.57471      3.01566        -0.038283      0.026460     -0.027608
      5.88904      1.53650      7.18952         0.001187      0.003377      0.013366
      3.39168      5.87136      3.04004         0.008982      0.004312      0.070155
      3.39447      5.89343      7.15884        -0.014429      0.006664      0.038234
      8.37367      2.75597      3.12469        -0.002374     -0.004876     -0.017174
     -1.59493      2.79470      7.16428        -0.018482     -0.002668      0.005010
      5.89406      7.07424      3.06327        -0.051999      0.008056      0.024655
      5.88012      7.10174      7.15309        -0.022587      0.005663      0.053366
      2.95355      3.09338      2.62576         0.014557     -0.012803      0.037679
      3.35422      2.77615      7.18729         0.016019     -0.023394     -0.009112
      0.89283      7.12959      3.07503         0.011683      0.046679      0.031655
      0.90562      7.10496      7.20872        -0.007161      0.002070     -0.015099
    total drift:                               -0.000929     -0.000354     -0.000962

  FREE ENERGIE OF THE ION-ELECTRON SYSTEM (eV)
  free  energy   TOTEN  =      -442.57459713 eV

  energy  without entropy=     -442.57459713  energy(sigma->0) =     -442.57459713

 total charge

[...]

 magnetization (x)

# of ion       s       p       d       tot
    1        0.001   0.002   0.000   0.003
    2        0.001   0.002   0.000   0.004
    3        0.001   0.002   0.000   0.003
    4        0.001   0.002   0.000   0.003
    5        0.001   0.002   0.000   0.004
    6        0.001   0.002   0.000   0.003
    7        0.001   0.002   0.000   0.003
    8        0.001   0.002   0.000   0.003
    9        0.028   0.037   3.059   3.124
   10        0.028   0.045   3.000   3.073
   11        0.027   0.044   2.950   3.021
   12        0.028   0.046   2.976   3.050
   13        0.028   0.037   3.059   3.124
   14        0.028   0.045   3.001   3.074
   15        0.027   0.045   2.973   3.046
   16        0.027   0.045   2.965   3.037
   17        0.025   0.036   2.990   3.051
   18        0.028   0.045   2.994   3.067
   19        0.027   0.044   2.956   3.028
   20        0.028   0.045   2.979   3.052
   21        0.029   0.045   3.009   3.083
   22        0.028   0.046   2.983   3.057
   23        0.027   0.044   2.955   3.027
   24        0.028   0.045   2.979   3.052
   25       -0.000  -0.127   0.000  -0.127
   26       -0.006  -0.443   0.000  -0.449
   27       -0.006  -0.433   0.000  -0.439
   28       -0.006  -0.454   0.000  -0.460
   29       -0.005  -0.404   0.000  -0.409
   30       -0.006  -0.435   0.000  -0.441
   31       -0.006  -0.439   0.000  -0.445
   32       -0.006  -0.438   0.000  -0.444
   33       -0.005  -0.357   0.000  -0.363
   34       -0.006  -0.481   0.000  -0.487
   35       -0.005  -0.392   0.000  -0.397
   36       -0.008  -0.475   0.000  -0.482
   37       -0.006  -0.430   0.000  -0.436
   38       -0.006  -0.450   0.000  -0.456
   39       -0.008  -0.410   0.000  -0.418
   40       -0.006  -0.462   0.000  -0.468
   41       -0.006  -0.466   0.000  -0.472
   42       -0.006  -0.485   0.000  -0.491
   43       -0.006  -0.412   0.000  -0.418
   44       -0.006  -0.434   0.000  -0.440
   45       -0.006  -0.427   0.000  -0.432
   46       -0.004  -0.389   0.000  -0.393
   47       -0.006  -0.433   0.000  -0.440
   48       -0.006  -0.420   0.000  -0.426
   49       -0.005  -0.357   0.000  -0.362
   50       -0.006  -0.481   0.000  -0.487
   51       -0.008  -0.411   0.000  -0.418
   52       -0.006  -0.462   0.000  -0.468
   53       -0.006  -0.430   0.000  -0.436
   54       -0.006  -0.450   0.000  -0.456
   55       -0.005  -0.392   0.000  -0.397
   56       -0.008  -0.475   0.000  -0.483
   57       -0.006  -0.427   0.000  -0.432
   58       -0.004  -0.389   0.000  -0.393
   59       -0.006  -0.412   0.000  -0.418
   60       -0.006  -0.434   0.000  -0.441
   61       -0.006  -0.466   0.000  -0.472
   62       -0.006  -0.485   0.000  -0.491
   63       -0.006  -0.433   0.000  -0.440
   64       -0.006  -0.420   0.000  -0.426
   65       -0.005  -0.404   0.000  -0.409
   66       -0.006  -0.435   0.000  -0.441
   67       -0.006  -0.433   0.000  -0.439
   68       -0.006  -0.454   0.000  -0.460
   69       -0.000  -0.127   0.000  -0.127
   70       -0.006  -0.443   0.000  -0.449
   71       -0.006  -0.439   0.000  -0.445
   72       -0.006  -0.438   0.000  -0.444
tot          0.170 -19.479  47.830  28.521

 BZINTS: Fermi energy:  2.505806;520.000000 electrons
         Band energy:***********;  BLOECHL correction: -0.002118